annotation,setId
blood group,50898
surfactants,50898
image processing,50898
lateral shift,50898
DNA,50898
microscope,50898
Serologic,50898
signal-to-noise ratio,50898
phenotype,50898
expression,50898
The advantage,50898
cDNA,50898
interferometric,50898
mutation,50898
exon,50898
allele,50898
primer,50898
algorithm,50898
antigens,50898
alkylphenol,50898
polymerase,50898
chain reaction,50898
polymorphism,50898
nucleotide,50898
acid,50898
polymorphic,50898
differential interference contrast,50898
HPLC,50898
Rare,50898
epitope,50898
polypeptide,50898
polypeptides,50898
GC-MS,50898
estuarine,50898
charge-coupled device,50898
latex,50898
wastewater,50898
Dutch,50898
sewage sludge,50898
bovine,50898
monoclonal,50898
spermatozoa,50898
polyclonal,50898
SIOP,50898
ethoxylate,50898
Fourier domain,50898
Aspirin,50898
metformin,50898
metastases,50898
MRI,50898
neurologist,50898
Fasting,50898
breast cancer,50898
homocysteine,50898
chemotherapy,50898
transient ischemic attack,50898
ischemic stroke,50898
doxorubicin,50898
cyclophosphamide,50898
Rankin,50898
granulocyte macrophage colony-stimulating factor,50898
serum creatinine,50898
Randomization,50898
mol,50898
stroke,50898
VEGF,50898
smoking,50898
platelet,50898
infarction,50898
interim analysis,50898
variance,50898
aspirin,50898
thrombocytopenia,50898
hazard ratio,50898
cerebral ischemia,50898
multiple sclerosis,50898
angiogenesis,50898
confidence interval,50898
plasma,50898
intracranial,50898
anticoagulant,50898
cancer,50898
platelets,50898
dose-response relationship,50898
The bleeding,50898
INR,50898
Anticoagulant,50898
non-insulin-dependent diabetes mellitus,50898
anticoagulation,50898
tumor,50898
wound healing,50898
metastasis,50898
lesion,50898
Ischemia,50898
atherosclerosis,50898
angiogenic,50898
Metformin,50898
vascular endothelial growth factor (VEGF),50898
vitamin B-12,50898
growth factor,50898
international,50898
normalized,50898
cross-sectional study,50898
primary care,50898
electron microscopy,50898
doped,50898
doping,50898
lattice,50898
antiphase,50898
X-ray,50898
finite-,50898
Swaziland,50898
PET,50898
central nervous system,50898
Arabian Sea,50898
tubulin,50898
Xylem,50898
CHO cells,50898
self-diffusion,50898
Netherlands,50898
nitric oxide,50898
type III collagen,50898
Radiology,50898
Co-60,50898
chronic renal failure,50898
nonfinite,50898
density functional theory (DFT),50898
etiology,50898
ovulation,50898
functional imaging,50898
C-reactive protein,50898
coccoliths,50898
pain management,50898
cimetidine,50898
metabolic pathways,50898
photon,50898
macrophage,50898
Ghana,50898
fluorouracil,50898
subgame,50898
noradrenergic,50898
rhetoric,50898
cognitive,50898
Getic,50898
Frisian,50898
ruthenium,50898
VUF,50898
UV-B,50898
locus,50898
non-steroidal anti-inflammatory,50898
finite element,50898
Antithrombin,50898
crystal structure,50898
quark,50898
lithium,50898
voltage,50898
dependence,50898
amino-acid,50898
x-ray,50898
2 degrees,50898
FSH,50898
volume fraction,50898
Burdigalian,50898
Angstrom,50898
mechanical wave,50898
inflammation,50898
protein,50898
analgesic,50898
haemodialysis,50898
noradrenaline,50898
acetonitrile,50898
angina pectoris,50898
thiol,50898
Nernst potential,50898
sanitation,50898
CEO,50898
type I collagen,50898
H-3,50898
A157,50898
SCH 23390,50898
intestinal mucosa,50898
space group,50898
ligand,50898
nitrendipine,50898
dimer,50898
cytomegalovirus,50898
ionization chamber,50898
anisotropy,50898
counterion,50898
D1 receptor,50898
uvea,50898
NORC,50898
peritoneal dialysis,50898
U251,50898
Ireland,50898
5FU,50898
HEK-293,50898
congestive heart failure,50898
immunization,50898
lactational amenorrhea,50898
SST,50898
3D,50898
histamine,50898
agonist,50898
dopamine transporter,50898
foraminifera,50898
eV,50898
charge carrier,50898
Desire,50898
cisplatin,50898
NMR,50898
cortex,50898
COS-7 cells,50898
Elsevier Science Ltd,50898
oxymetazoline,50898
MG,50898
main sheet,50898
stiffness,50898
relative permeability,50898
bone,50898
weaning,50898
Sf9,50898
Sarmatian,50898
amenorrhea,50898
membrane protein,50898
IL-6,50898
PC,50898
molecule,50898
SST records,50898
strike-slip,50898
fusion protein,50898
Academic Press,50898
least-squares,50898
Sexual Aversion Disorder,50898
blockade,50898
absorbed dose,50898
murine,50898
TSH receptor,50898
arthritis,50898
antinociceptive,50898
liver,50898
Paleogene,50898
IL-1,50898
vertebral body,50898
Orgasm,50898
copper,50898
brass,50898
H-2,50898
supernatant,50898
naphthyridine,50898
extrusion,50898
phentolamine,50898
melanin,50898
kidney transplantation,50898
glucocorticoid,50898
cation,50898
diabetes mellitus,50898
rauwolscine,50898
glibenclamide,50898
puberty,50898
allosteric,50898
antibody,50898
oxygen isotope stage,50898
heparin,50898
tetraethylammonium,50898
dexamethasone,50898
neurotransmitter,50898
dihydropyridine,50898
solvent,50898
dopamine,50898
epoxidation,50898
cAMP,50898
enzyme,50898
antithrombin,50898
Last Interglacial,50898
diphosphonate,50898
South Carpathians,50898
chelating,50898
rheumatoid arthritis,50898
hydrogen bonding,50898
Male Erectile Disorder,50898
transpressive,50898
von Mises stress,50898
inverse agonism,50898
ED50,50898
phenylalkylamine,50898
probability,50898
liposomes,50898
inhibitor,50898
G-protein,50898
American,50898
Arg,50898
isotope,50898
L-2-hydroxyglutaric aciduria,50898
xylem,50898
gallopamil,50898
nonlinear regression,50898
nucleus accumbens,50898
astrocyte,50898
potassium channel,50898
uveitis,50898
Late Sarmatian,50898
nociceptive,50898
sodium dodecyl sulfate,50898
Lys,50898
allosteric site,50898
trabecular bone,50898
inflection,50898
nucleon,50898
Botswana,50898
anti-inflammatory,50898
autoimmune,50898
logistic regression,50898
echo peak,50898
radiation,50898
maternal age,50898
Tesla,50898
transcription,50898
monsoon,50898
Lymnaea,50898
burimamide,50898
rate kinetics,50898
paleostress,50898
spectroscopic,50898
methoxy,50898
participle,50898
TMA,50898
intervertebral disc,50898
calcareous,50898
revised version,50898
generalized gradient approximation,50898
sepsis,50898
gamma-ray,50898
radioligand,50898
parenchyma,50898
nerve,50898
psychophysiological,50898
H-1,50898
macrophages,50898
Cu,50898
polyacrylamide gel electrophoresis,50898
phenylalkylamines,50898
Holocene,50898
Last Glacial Maximum,50898
electrophoresis,50898
hydrogen,50898
liposome,50898
colon,50898
cyclooxygenase,50898
renal,50898
calmodulin,50898
pedicles,50898
molecular mass,50898
indomethacin,50898
endocrine,50898
histological,50898
brain,50898
Glu,50898
tetramer,50898
IC50,50898
bone marrow,50898
prodrug,50898
neuropathy,50898
locus coeruleus,50898
thioperamide,50898
symmetry,50898
neurons,50898
phenyl,50898
sexual dysfunction,50898
PMMA,50898
amino terminus,50898
American Association,50898
Sexual dysfunction,50898
carbamate,50898
anion,50898
carbon,50898
coccolith,50898
X-band,50898
cytotoxic drug,50898
pedicle,50898
anterior chamber,50898
electron paramagnetic resonance,50898
PGE,50898
aorta,50898
antagonist,50898
coincide,50898
rhombic,50898
facet joints,50898
pion,50898
pigment,50898
case-control study,50898
neuroendocrine,50898
serpin,50898
saltmarsh,50898
Swazi,50898
Lithium,50898
The questionnaire,50898
taxonomic,50898
verb,50898
ovulation induction,50898
detergent,50898
lung,50898
BSF,50898
signal transduction,50898
The technique,50898
Shamir,50898
C3a,50898
leucovorin,50898
tectonic,50898
transpiration stream,50898
magnetic,50898
rate constant,50898
oxygen saturation,50898
sedation,50898
South Africa,50898
hydrolysis,50898
analgesia,50898
lumbar,50898
time series,50898
copper(II),50898
beta-glucuronidase,50898
pharmacology,50898
ion,50898
insolation,50898
hydrogen-bonding,50898
exogenous,50898
NE monsoon,50898
mixed layer,50898
euphotic zone,50898
upwelling,50898
magnetic susceptibility,50898
eukaryotic,50898
Platelet,50898
albumin,50898
sedimentation,50898
platelet rich plasma,50898
astrocytes,50898
stratigraphy,50898
lipophilicity,50898
evolution,50898
Lorentz invariance,50898
thymidylate synthase,50898
naproxen,50898
hemoglobin,50898
Follicle Stimulating Hormone,50898
ethylamine,50898
dependent variable,50898
Elymus,50898
basis function,50898
epithelial,50898
light harvesting complex,50898
philosophy,50898
potential energy surface,50898
Delta,50898
breastfeeding,50898
metabolism,50898
congener,50898
medial prefrontal cortex,50898
lumbar vertebra,50898
interglacial,50898
Dexamethasone,50898
collagen,50898
haemodynamic,50898
intravenous,50898
coronary artery,50898
acidosis,50898
dagger,50898
paracetamol,50898
scientific beliefs,50898
French,50898
PES,50898
Ghanaian,50898
pneumococcal,50898
projection areas,50898
recombinant DNA,50898
coagulation,50898
constellation,50898
intracranial aneurysm,50898
maleate,50898
ANCOVA,50898
Somalia,50898
Rhodospirillum rubrum,50898
nonlinear,50898
spectrophotometric,50898
calcium antagonist,50898
triazole,50898
forskolin,50898
endogenous,50898
microvasculature,50898
human spine,50898
GSSG,50898
NLM,50898
plasma membrane,50898
morphine,50898
Late Cretaceous,50898
Rhodobacter sphaeroides,50898
derivative,50898
starting point,50898
oxygen,50898
kJ,50898
Oman,50898
millet,50898
cytokine,50898
internal control,50898
Science Inc.,50898
sea surface temperature (SST),50898
antinociception,50898
dissonance,50898
cassava,50898
depolarization,50898
hypothalamic,50898
digital,50898
prenylamine,50898
matrix,50898
glutathione,50898
monoclonal antibody,50898
alkali,50898
orogenic,50898
vertebrae,50898
echo planar imaging,50898
photosynthesis,50898
voxel,50898
A3,50898
flux,50898
"John Wiley & Sons, Inc.",50898
erotosexual,50898
calcium,50898
Fumigation,50898
cerebral angiography,50898
resemble,50898
mononuclear cell,50898
N-acetyl cysteine,50898
specific finding,50898
PBS,50898
raclopride,50898
prolonged breastfeeding,50898
conformational change,50898
net photosynthesis,50898
H2O,50898
The control group,50898
retinal pigment epithelium,50898
comorbidity,50898
Maldives,50898
kmol,50898
Proton NMR,50898
Phantom,50898
triclinic,50898
stoichiometry,50898
sexual arousal,50898
D2 receptor,50898
biomass,50898
receptor,50898
pigment epithelium,50898
Discourse analysis,50898
overshoot,50898
polyelectrolytes,50898
quantum,50898
salutogenesis,557
working memory,50898
geochemical,50898
gender studies,50898
Insomnia,50898
event-related potential,50898
kilohertz,50898
formal logic,50898
Metathesis,50898
Abd al Kuri,50898
gasoline,50898
gait,50898
clinical trial,50898
root canal,50898
reinsurance,50898
suprema,50898
The format,50898
Macintosh,50898
interval scale,50898
management science,50898
eyelid,50898
cocompact,50898
sexually transmitted infections,50898
standard model,50898
aortic,50898
deep inelastic scattering,50898
xanthine,50898
Mirage,50898
Forest Stewardship Council,50898
France,50898
peroxide,50898
formyl cyanide,50898
reionisation,50898
social anxiety,50898
rap,50898
construct validity,50898
complement deficiency,50898
excimer laser,50898
Morphine,50898
Prostate cancer,50898
pulsar,50898
pipamperone,50898
Osteoporosis,50898
complement factor H,50898
arsenic,50898
Grade retention,50898
cryptophyte,50898
arthropod,50898
haemorrhage,50898
ZF,50898
heuristic argument,50898
Enzyme,50898
NID,50898
Jews,50898
mental health,50898
phosphoglycerate kinase,50898
memory,50898
Wouter Hanegraaff,50898
nationalist,50898
cardiovascular disease,50898
Atmospheric Infrared Sounder,50898
FSF,50898
genus,50898
visual cortex,50898
Methane,50898
abiotic,50898
HIV-1,50898
Becker,50898
usability,50898
actinomycosis,50898
personality type,50898
sub-Saharan Africa,50898
nitrate,50898
primary hyperoxaluria,50898
language change,50898
anaesthetic,50898
CP violation,50898
neck pain,50898
mortality,50898
IVUS,50898
psychology,50898
Adolescents,50898
Vietnamese,50898
Cox process,50898
Streptococcus,50898
Serious games,50898
sleep,50898
sexual abuse,50898
epistemic,50898
cholesterol,50898
disulfide,50898
option pricing,50898
pancreas,50898
thrombomodulin,50898
Geul,50898
moiety,50898
photosynthetic,50898
renal function,50898
photometry,50898
HbA1c,50898
euthanasia,50898
Human immunodeficiency virus,50898
sterilization,50898
Alamethicin,50898
syndrome,50898
Euroscepticism,50898
cytochrome P450,50898
soft matter,50898
database,50898
lumbar spinal stenosis,50898
absorption spectrum,50898
norm,50898
enalapril,50898
Transients,50898
chocolate,50898
de-Stalinization,50898
health insurance,50898
anemia,50898
depression,50898
theorem,50898
radical mastectomy,50898
hemostatic,50898
Europe,50898
OECD,50898
pseudospectra,50898
Parkinsonism,50898
vertebrate,50898
missense,50898
EBT,50898
capillary electrochromatography,50898
I4,50898
slit-scan,50898
pyrimidine metabolism,50898
Van,50898
structure activity relationship,50898
Gram-negative,50898
Reexamination,50898
sodium,50898
Aim,50898
interleukin 12,50898
cytokines,50898
historical climatology,50898
ZES,50898
unit cell,50898
shear,50898
toilet training,50898
white dwarf,50898
Woodley,50898
acute myeloid leukaemia,50898
determinant,50898
botulinum toxin,50898
Surrey,50898
climbing wall,50898
coronary angioplasty,50898
compactification,50898
hemodynamic,50898
4S,50898
bandgap,50898
El Salvador,50898
dyslexia,50898
mantle xenoliths,50898
chiropractic,50898
emotion,50898
Gamma-ray burst,50898
hydraulic conductivity,50898
Breastfeeding,50898
public administration,50898
hypertrophy,50898
screening,50898
gender dysphoria,50898
wave function,50898
psychometric,50898
social class,50898
refractory,50898
percolation,50898
humeral fractures,50898
sensory neuropathy,50898
proton,50898
chronic heart failure,50898
attention deficit hyperactivity disorder (ADHD),50898
macromolecular crowding,50898
AIMS,50898
city,50898
risk-neutral,50898
HD,50898
antimicrobial,50898
lymph nodes,50898
hypogonadism,50898
Murrumbidgee,50898
magnetization,50898
Maltese,50898
meta-analysis,50898
Lipoprotein lipase,50898
pill burden,50898
portal hypertension,50898
stenosis,50898
science communication,50898
Morocco,50898
World Anti-Doping Code,14051
resonance enhanced multiphoton ionization,50898
Saccharomyces cerevisiae,50898
rhodium,50898
collagen VI,50898
unicellular,50898
human immunodeficiency virus,50898
narcissism,50898
ROSAT,50898
supramolecular,50898
Glial fibrillary acidic protein (GFAP),50898
Monte Carlo,50898
virulence,50898
polycystic ovary syndrome,50898
self-rated health,50898
FCE,50898
diver,50898
Virgo interferometer,50898
Miocene,50898
Bangladesh,50898
mitosis,50898
rectal,50898
malaria,50898
mevalonate,50898
humerus,50898
OKT3,50898
Heart rate,50898
vascular tissue,50898
Immunology,50898
magnetic monopoles,50898
colorectal cancer,50898
antipsychotic,50898
IL-10,50898
Amyotrophic lateral sclerosis (ALS),50898
Chemotherapy,50898
Moors,50898
magnetoresistance,50898
habituation,50898
Polyvinyl siloxane,50898
false positive,50898
Rietveld method,50898
intellectual disability,50898
Porites,50898
thermal expansion,50898
nuchal translucency measurement,50898
fluoxetine,50898
HERA,50898
floodplain,50898
organizational citizenship behavior,50898
electrocardiographic,50898
personality disorders,50898
essential hypertension,50898
ranibizumab,50898
antiretrovirals,50898
phospholipase A,50898
Hyperglycemia,50898
obesity,50898
moduli space,50898
truth predicate,50898
Vitiligo,50898
Magnetic Resonance Imaging,50898
mitotic spindle,50898
6-thioguanine,50898
LHC,50898
time domain reflectometry,50898
European Union,50898
Polycystic ovary syndrome,50898
ontogeny,50898
NPV,50898
IVF,50898
network simulation,50898
protein synthesis,50898
microblog,50898
oocyte,50898
selective catalytic reduction,50898
motor planning,50898
insulin,50898
heart rate,50898
Transit Oriented Development,50898
pregnancy,50898
solute,50898
hemilabile,50898
Kawasaki,50898
ILO,50898
heavy metal,50898
protocol,50898
hypertrophic cardiomyopathy,50898
Rossi X-ray Timing Explorer,50898
rain forest,50898
histopathologic,50898
Epicurus,50898
involuntary admissions,50898
perirhinal cortex,50898
direct thermal,50898
holotype,50898
adrenoleukodystrophy,50898
Infliximab,50898
set theory,50898
color constancy,50898
infliximab,50898
Coagulation factor VII,50898
asthma,50898
immunocompetent,50898
vaccine,50898
protein C,50898
molecular orbital theory,50898
pediatric,50898
dental anxiety,50898
Tumor necrosis factor alpha,50898
Faraday rotation,50898
hearing aid,50898
APC,50898
trial registration,50898
instrumental variable,50898
glucose transporter 1,50898
content analysis,50898
ectrodactyly,50898
Homozygous,50898
Vibrio,50898
content-based image retrieval,50898
L3,50898
anarchists,13982
insulin-dependent diabetes mellitus,50898
Magnetic resonance imaging (MRI),50898
follicular phase,50898
SCN5A,50898
subcutaneous,50898
Erwinia,50898
multiplex PCR,50898
lupus,50898
Apathy,50898
Ultrasound,50898
myelin,50898
juvenile idiopathic arthritis,50898
Self-assembly,50898
SDS,50898
proteasome,50898
ion cyclotron resonance,50898
ecological stoichiometry,50898
persistent organic pollutants (POPs),50898
Colon cancer,50898
covalent,50898
CD4,50898
midge,50898
Phodopus sungorus,50898
psychopathologies,50898
DSM,50898
statistical test,50898
empathy,50898
hot flushes,50898
nitrene,50898
supersymmetry,50898
sexual orientation,50898
three-dimensional (3-D),50898
erosion,50898
Lyman,50898
alcohol,50898
optimization,50898
Anal cancer,50898
SO2,50898
prediabetic,50898
birthweight,50898
allograft,50898
hippocampus,50898
white matter hyperintensities,50898
ester,50898
molecular weight,50898
coupled oscillator,50898
reasoned action,50898
Energy efficiency,50898
AO,50898
Turkish,50898
kinematic,50898
Glaucoma,50898
alluvial,50898
polyethylene,50898
auxin,50898
World Health Organization (WHO),50898
critical temperature,50898
polyunsaturated fatty acids,50898
economics,50898
gastric cancer,50898
antigen,50898
spinal cord injury,50898
green alga,50898
Fermi-LAT,50898
blood pressure,50898
plasmacytoid,50898
haemophilia,50898
melanoma,50898
nonparametric,50898
capacitated,50898
Dendritic cell,50898
parasitoids,50898
sequent,50898
rum,50898
biology,50898
CXCL12,50898
Rheumatoid arthritis,50898
arousal,50898
Down Syndrome,50898
motor nerve,50898
total hip replacement,50898
scattering,50898
Rhizomelic chondrodysplasia punctata,50898
citrus,50898
Collision-induced dissociation,50898
Engle,50898
density matrix,50898
demyelination,50898
Evaporation,50898
neuroscience,50898
Grapheme-color synesthesia,50898
Preconditioning,50898
systematic reviews,50898
peginterferon-alfa,50898
morphology,50898
repossession,50898
N-acetyl-D-glucosamine,50898
ultrasound,50898
Calcium,50898
Islamic revival,50898
nonparametric estimation,50898
antiretroviral treatment,50898
radio galaxies,50898
irreducible,50898
GK,50898
non-coding RNA,50898
intensive care,50898
TW Hydrae,50898
Familial partial lipodystrophy,50898
dihydropyrimidine dehydrogenase,50898
autoimmune disease,50898
vascular dementia,50898
Caqueta,50898
hepatic steatosis,50898
The evidence,50898
anxiety,50898
thiazolidinediones,50898
B cell,50898
Neutrino oscillations,50898
phytoplankton,50898
caffeine,50898
argumentation theory,50898
momentum,50898
Electrospray ionization,50898
silylated,50898
quantitative trait locus,50898
squamous cell,50898
AIM,50898
Genome-wide association studies,50898
respiratory syncytial virus,50898
zeolites,50898
fMRI,50898
Canada,50898
corticosteroids,50898
image classification,50898
CD-ROM,50898
splenectomy,50898
Dependent variables,50898
urea cycle,50898
neuroprotective,50898
Malaria,50898
Computed tomography,50898
environmental migration,50898
Cross-sectional studies,50898
screening mammography,50898
hydrophobic,50898
pathophysiology,50898
Network analysis,50898
polymer,50898
Straumann,50898
Coeliac disease,50898
Nitrofuran,50898
Coronary heart disease,50898
peroxisomal,50898
GeV,50898
Antibiotic,50898
t-J model,50898
beta lactam,50898
SA,50898
transtheoretical model,50898
convergence,50898
White,50898
autologous,50898
Cadmium,50898
hyperpolarization,50898
3TC,50898
ethics,50898
Inflammatory Bowel Disease,50898
Signal transduction,50898
schizophrenia,50898
dysplasia,50898
Rydberg atoms,50898
stroke volume,50898
palliative care,50898
Shc,50898
magnitude,50898
Alirocumab,50898
axions,50898
slavery,50898
scalar,50898
LISREL,50898
laryngectomized,50898
ecosystem,50898
high tibial osteotomy,50898
embolism,50898
Neutropenia,50898
DEA,50898
tuberculosis,50898
monoclonal antibodies,50898
Interleukin-4,50898
W-boson,50898
preeclampsia,50898
Executive function,50898
antibiotics,50898
lattice models,50898
sexual rights,50898
object-based attention,50898
bidentate,50898
reflux esophagitis,50898
lacustrine,50898
Rhodococcus rhodochrous,50898
Aprotinin,50898
phosphorothioate,50898
solvation,50898
copy-number variation,50898
breast,50898
Protein aggregation,50898
CC Chemokine,50898
attachment-based therapy,50898
mammographic,50898
obesity epidemic,50898
mixed model,50898
diastolic,50898
hydrolase,50898
angiosperm,50898
Fredholm alternative,50898
asteroseismic,50898
Casanova,50898
cholangitis,50898
vasoactive,50898
Minimum Data Set,50898
Neuropeptide Y,50898
dendritic cells,50898
adult child,50898
nucleation,50898
external fixation,50898
electric shock,50898
arteriogenesis,50898
hyperglycemia,50898
didanosine,50898
Posttraumatic stress disorder (PTSD),50898
Urbanization,50898
Stok,50898
Nature Reviews Immunology,50898
long-baseline interferometry,50898
The spectrum,50898
XACML,50898
Sumatra,50898
TeV,50898
abdominal aortic aneurysm,50898
pyrazole,50898
Kolkata,50898
uropathy,50898
water security,50898
forensic,50898
radiosurgery,50898
Narrow-band,50898
atrophy,50898
Ranitidine,50898
cantilever,50898
zinc,50898
Leishmania,50898
Internet,50898
immunogenicity,50898
pathogen,50898
Gametogenesis,50898
carcinoma,50898
Stoke,50898
intimate partner violence,50898
cardiac pacing,50898
R&D,50898
highly active antiretroviral therapy,50898
dissociation,50898
explicit knowledge,50898
fossil,50898
bruxism,50898
COMT,50898
glaucoma,50898
socioeconomic,50898
climate change,50898
Self-regulated learning,50898
neuropathic pain,50898
randomized controlled trial,50898
protoplanetary disc,50898
visual field,50898
myalgia,50898
Bornean,50898
Attention-deficit/hyperactivity disorder,50898
Climate change,50898
Brief Psychiatric Rating Scale,50898
Enterobacteriaceae,50898
trust,50898
Sunitinib,50898
left ventricle,50898
Gram stain,50898
structural integration,50898
tetrachloroethene,50898
electroencephalography,50898
Thrombin,50898
taxonomy,50898
phytohormone,50898
language families,50898
endothelial cells,50898
Hz,50898
Bolivia,50898
ATLAS,50898
metabolome,50898
cataract,50898
Acid reflux,50898
substrates,50898
East African Community,50898
multidrug resistance,50898
primers,50898
virtual reality,50898
point process,50898
intelligence,50898
John Wiley & Sons,50898
Prostate-specific antigen,50898
gene,50898
Nitric oxide,50898
functional magnetic resonance imaging (fMRI),50898
Bayesian,50898
cyclosporine A,50898
nursing,50898
regression,50898
polynomial,50898
signal-to-noise,50898
energy density,50898
cerebral blood flow,50898
EU,50898
multimethod,50898
timing analysis,50898
Water vapor,50898
EVAR,50898
radial velocity,50898
bubble column,50898
undirected graph,50898
PubMed,50898
Artemis deficiency,50898
twin study,50898
hydrogen sulphide,50898
sputum,50898
MCI,50898
ice,50898
geomorphology,50898
field trial,50898
endoscopic,50898
neurodevelopment,50898
self-assembly,50898
proprioception,50898
Familial hypercholesterolemia,50898
catalyst,50898
Type IIB string theory,50898
Giant cell arteritis,50898
metabolic cost,50898
Mucopolysaccharidosis,50898
ham,50898
Acute kidney injury,50898
metaphysical possibility,50898
biomarker,50898
democracy,50898
logic,50898
pollen,50898
two-dimensional gas,50898
HCl,50898
Gnostic texts,50898
spacetime,50898
Shigella,50898
spin,50898
prenatal diagnosis,50898
InP,50898
semantic,50898
pathological gambling,50898
visual illusion,50898
dark matter,50898
Tilburg,50898
double-blind,50898
eigenvector,50898
acoustic,50898
physics,50898
Ichthyol,50898
PCR,50898
silicate,50898
thematic analysis,50898
controlled trials,50898
TCS,50898
bullying,50898
lipoprotein,50898
insomnia,50898
artificial pancreas,50898
soil erosion,50898
Burkholderia pseudomallei,50898
polio,50898
ultraviolet radiation,50898
Ecosystem services,50898
Mariculture,50898
laryngectomy,50898
psychotherapy,50898
bone graft,50898
prophylactic,50898
Landau,50898
retinal,50898
gadolinium,50898
neural networks,50898
neural network,50898
functional magnetic resonance imaging,50898
serotonin,50898
prospective cohort study,50898
pallidotomy,50898
child maltreatment,50898
albino,50898
Shapley,50898
liposomal,50898
pulmonary,50898
occult,50898
quinolone,50898
leukocytes,50898
Differential Susceptibility,50898
cardiogenic shock,50898
soccer,50898
proximal,50898
vibronic,50898
interpersonal communication,50898
phenomenology,50898
Patient Reported Outcomes,50898
Diffuse intrinsic pontine glioma,50898
melatonin,50898
Lambek,50898
chiral,50898
iron-deficiency anemia,50898
HIV,50898
JDM,50898
therapeutic hypothermia,50898
placental,50898
hydrodynamics,50898
bacterium,50898
fatty acid,50898
safety culture,50898
Dendritic cells,50898
systemic sclerosis,50898
chronic myeloid leukemia,50898
Percutaneous,50898
ormas,50898
Hybrid coronary revascularization,50898
populist,50898
visual search,50898
Eicosanoids,50898
Benjamin,50898
black hole,50898
hemicellulose,50898
party system,50898
C1 esterase inhibitor,50898
Sexually transmitted infection,50898
carcinogenic,50898
positron,50898
Valencia,50898
microevolution,50898
autosomal recessive,50898
RNA interference,50898
X-1,50898
anesthetic,50898
two-level atom,50898
The natural,50898
supermassive black hole,50898
pentabromodiphenyl ether,50898
Prospective cohort study,50898
bioavailability,50898
Nuclear magnetic resonance (NMR),50898
functional equation,50898
Testosterone,50898
psi,50898
interact,50898
tax avoidance,50898
metastatic bone disease,50898
bacteria,50898
Sierra Leone,50898
BMI,50898
SYNTAX,50898
EEG,50898
clinical decision support,50898
CD97,50898
SIPP,50898
gel,50898
construal,50898
STOCKWELL,50898
England,50898
chromosome,50898
psychogenic nonepileptic seizures,50898
Target,50898
Telomere,50898
colored noise,50898
poliomyelitis,50898
cytoplasm,50898
total exposure,50898
quality management,50898
life expectancy,50898
Ascaris suum,50898
soft drink,50898
female reproductive system,50898
disability,50898
wildlife,50898
sinus node,50898
permafrost,50898
AdS/CFT correspondence,50898
accounting,50898
semi-arid,50898
sensory processing,50898
Familial adenomatous polyposis,50898
diffraction,50898
biometrics,50898
aversive racism,50898
computably enumerable,50898
RFX,50898
pig,50898
PTSD,50898
FEF,50898
loci,50898
metaphor,50898
meson,50898
biodiversity,50898
sperm,50898
spa,50898
China,50898
myocardial,50898
RAG1,50898
two-dimensional liquid,50898
bite angle,50898
atonement,50898
chromaffin cells,50898
dementia,50898
parameter estimation,50898
Andes,50898
PRISM,50898
MF,50898
5'-nucleotidase,50898
Borderline personality disorder,50898
outsourcing,50898
Brauer,50898
pallidus,50898
Kane,50898
hormone,50898
cobalamin,50898
muscle,50898
Statins,50898
Syntaxin,50898
parenteral nutrition,50898
accretion,50898
selective dorsal rhizotomy,50898
Social capital,50898
30 days,50898
neo-Hegelian,50898
Fectio,50898
bradycardia,50898
Discourse Grammar,50898
Bethlem myopathy,50898
Haemophilus influenzae,50898
Smooth muscle,50898
business cycle,50898
altruism,50898
ACP,50898
broadband,50898
polycyclic aromatic hydrocarbons (PAHs),50898
epidemiological,50898
closed economy,50898
P2Y12 inhibitors,50898
Nile,50898
absolute risk aversion,50898
Tubulin,50898
inflation,50898
upper esophageal sphincter,50898
mitochondrial disease,50898
pneumococcal meningitis,50898
Anemia,50898
adenosine,50898
intraguild predation,50898
language contact,50898
force field,50898
urban planning,50898
Robert Leslie Ellis,50898
microdialysis,50898
SO(5),50898
antibodies,50898
Grampus,50898
foreign direct investment (FDI),50898
dysphagia,50898
VL,50898
training day,50898
femoral nerve block,50898
lactoferrin,50898
Oxidative stress,50898
X-ray diffraction,50898
evidentiality,50898
Missing data,50898
pharmacotherapy,50898
pair production,50898
lysosomal storage disorders,50898
Foreign Direct Investment (FDI),50898
Child abuse,50898
racetams,50898
homeotic gene,50898
M31,50898
angiotensin II,50898
cognitive flexibility,50898
Variance,50898
excessive daytime sleepiness,50898
spectrometer,50898
D*,50898
noise reduction,50898
Hypertension,50898
gold-plated silver,50898
pitavastatin,50898
carotid artery stenosis,50898
dental implants,50898
Twitter,50898
ischemia,50898
remote sensing,50898
gluteal muscles,50898
Cholesterol,50898
amplitude,50898
Barrett,50898
geological time scale,50898
phragmoplast,50898
cocoa butter,50898
glucose,50898
Mental Models,50898
olfactometer,50898
chronic pancreatitis,50898
physical activity level,50898
antidepressant,50898
secondary metabolites,50898
problem gambling,50898
luteal support,50898
heat transfer,50898
MSM,50898
Celecoxib,50898
Cochrane Collaboration,50898
tyrosine,50898
spectral resolution,50898
cutaneous,50898
nasopharyngeal,50898
WSPA,50898
panel data,50898
alkyne,50898
O(3),50898
latency,50898
microRNA,50898
Norway,50898
FDG-PET,50898
Pseudoxanthoma elasticum,50898
PPP,50898
chemical bond,50898
thermoelectric,50898
synesthesia,50898
OLS,50898
Fanconi anemia,50898
coenzyme A,50898
DDR,50898
national labour,50898
meningococcus,50898
transcriptomics,50898
human papillomavirus,50898
tumor necrosis factor,50898
prevention science,50898
isocitrate,50898
rotaxane,50898
glucose metabolism,50898
In vitro fertilization,50898
Iberian,50898
Powder diffraction,50898
Electrokinetic phenomena,50898
volatility,50898
AI,50898
biomedical materials,50898
ADHD,50898
Daphnia,50898
x-ray scattering,50898
political economy,50898
sliding friction,50898
alkaloid,50898
cross-sectional studies,50898
realism,50898
taxa,50898
X-chromosome,50898
low-molecular-weight heparin,50898
oophorectomy,50898
steric effects,50898
hypoxic,50898
Mechanical ventilation,50898
laser,50898
Gynecology,50898
antineoplastic,50898
non-perturbative,50898
erlotinib,50898
herpesvirus,50898
tracer,50898
lecithin,50898
Genetic counseling,50898
Non-timber forest products,50898
Irritant contact dermatitis,50898
lung sounds,50898
holographic,50898
factor analysis,50898
induced polarization,50898
imatinib,50898
phytoseiid,50898
thrombosis,50898
sterile neutrino,50898
Quality assurance,50898
sexual desire,50898
Gram-negative bacteria,50898
attentional blink,50898
intermetallic,50898
retinoschisis,50898
securitization,50898
Clostridium,50898
zidovudine,50898
Iran,50898
pathogenesis,50898
smooth muscle,50898
cohort study,50898
Photodynamic therapy,50898
helical,50898
A 7,50898
Ginzburg-Landau,50898
aeration,50898
tubal pregnancy,50898
Learning styles,50898
attention deficit/hyperactivity disorder,50898
gastrointestinal tract,50898
Intraoperative monitoring,50898
prednisone,50898
N-ras,50898
behavioral ethics,50898
Neuroblastoma,50898
maize,50898
rhizosphere,50898
transsexual,50898
nuclear magnetic resonance (NMR),50898
collective action,50898
The delay,50898
Gap,50898
Kassala,50898
beta-amyloid,50898
asset allocation,50898
median sternotomy,50898
Neuroimaging,50898
tremor,50898
neurofibromatosis,50898
opioid receptor,50898
Feynman diagram,50898
heart rate variability,50898
resonance Raman,50898
crater,50898
shear stress,50898
lepton,50898
infertility,50898
Middle Miocene,50898
cognitive science,50898
nickel,50898
nerve fiber,50898
partition function,50898
mountain,50898
Yemenite deaf-blind hypopigmentation syndrome,50898
anterior cruciate ligament (ACL),50898
zircon,50898
cognitive control,50898
United Nations,50898
vaccine effectiveness,50898
Cavity ring-down spectroscopy,50898
kinase,50898
scattering length,50898
bipyridine,50898
Exocytosis,50898
soft X-ray transient,50898
coagulopathy,50898
Pneumonia,50898
SmB6,50898
Folliculitis decalvans,50898
MooDFOOD,50898
photoreceptor,50898
heterosexual,50898
Fermi sea,50898
musculoskeletal,50898
homogamy,50898
integral,50898
molecular orbital,50898
North Sea,50898
ventricular,50898
critical role,50898
McDonald criteria,50898
pyruvate,50898
Cervical cancer,50898
nitrogen,50898
i.i.d.,50898
aortopexy,50898
hyperthermia,50898
phenylketonuria,50898
Turks,50898
Nephrectomy,50898
antiretroviral therapy,50898
Orthostatic hypotension,50898
soleus,50898
bradykinin,50898
halide,50898
Iowa,50898
mitochondria,50898
comorbidities,50898
Invisalign,50898
conspecifics,50898
Atherosclerosis,50898
substrate,50898
CRT,50898
Southeast Asia,50898
capillary electrophoresis,50898
glycemic load,50898
Spearman,50898
TNF alpha,50898
Pleistocene,50898
human immunodeficiency virus (HIV),50898
Chronic kidney disease,50898
LCP,50898
Dutch national,50898
confidence intervals,50898
total knee arthroplasty,50898
pyridine,50898
Yang-Baxter equation,50898
millisecond,50898
interplay,50898
Clomiphene citrate,50898
tryptophan,50898
IAPR,50898
Burkitt,50898
neurocognitive,50898
olfactory,50898
objectification,50898
fermentation,50898
Contact,50898
prototypicality,50898
megaproject,50898
Asian,50898
immunity,50898
Representative democracy,50898
Endothelial nitric oxide synthase,50898
financial statements,50898
mRNA,50898
psychopathology,50898
Team learning,50898
prosocial behavior,50898
acarbose,50898
aquatic,50898
Human anti-mouse antibody,50898
embryo transfer,50898
Major depressive disorder (MDD),50898
Hammersmith,1720
entrainment,50898
Non-alcoholic fatty liver disease,50898
Mycobacterium tuberculosis,50898
striatum,50898
deep venous thrombosis,50898
Azobenzene,50898
glucocorticoids,50898
multiplayer,50898
atrophic gastritis,50898
social phobia,50898
Sun,50898
Docetaxel,50898
forecasting,50898
non-small cell lung cancer,50898
transfusion,50898
solar,50898
Haemoglobin,50898
testosterone,50898
G4,50898
recombination,50898
molecular weight distribution,50898
Immune thrombocytopenia,50898
experimental design,50898
pancreatic duct,50898
IFN-gamma,50898
dopamine receptor,50898
simulation,50898
seronegative,50898
transmetallation,50898
mode choice,50898
exegesis,50898
endogenous growth,50898
Bile,50898
Exhaled nitric oxide,50898
NASA,50898
liberal democracies,50898
subcompact,50898
inflammatory bowel disease,50898
polyadenylation,50898
stochastic,50898
levothyroxine,50898
health promotion,50898
30 Doradus,50898
classical,50898
metal-organic framework,50898
group therapy,50898
synchronization,50898
N-heterocyclic carbene,50898
laparoscopy,50898
factorial,50898
ifosfamide,50898
Tumor necrosis factor-alpha,50898
seizures,50898
influenza,50898
digraph,50898
retinoblastoma,50898
immunoglobulin G,50898
monochorionic,50898
fibrinolysis,50898
bacterial meningitis,50898
endochondral ossification,50898
Tat,50898
urbanization,50898
multivariate,50898
vascular smooth muscle,50898
Leukocytes,50898
respiratory tract,50898
N2,50898
alkenone,50898
percutaneous coronary intervention,50898
airspeed,50898
one-pot synthesis,50898
Intravenous immunoglobulin,50898
fish,50898
Adenovirus,50898
DW,50898
Landauer,50898
haemostasis,50898
polycrystalline,50898
famine,50898
birth weight,50898
propene,50898
receiver operating characteristic,50898
digital hearing aid,50898
agriculture,50898
penalty kicks,50898
entanglement,50898
ethoxylated,50898
leading question,50898
Higgs boson,50898
attenuation,50898
Time series analysis,50898
borrower,50898
oxytocin,50898
interferon-gamma,50898
unsaturated hydrocarbon,50898
exponential growth,50898
erythromelalgia,50898
Schizophrenia,50898
aerobic,50898
Granulocyte-macrophage colony-stimulating factor,50898
hypoglycaemia,50898
ischemic preconditioning,50898
fracture,50898
Cell division,50898
resonance,50898
burnout,50898
physical exercise,50898
Titanium dioxide,50898
subthalamic nucleus,50898
cyanobacterium,50898
benthic,50898
crowdsourced,50898
atrial fibrillation,50898
elliptic genus,50898
memory trace,50898
duodenal,50898
Allium,50898
secondary school,50898
magnetic resonance imaging (MRI),50898
pedagogy,50898
neonatal,50898
biodegradable,50898
metapopulation,50898
meningococcal,50898
Pulse wave,50898
Ixodes ricinus,50898
Shin,50898
nocturnal,50898
metacognition,50898
pop,50898
personal continuity,50898
strength training,50898
Leukoaraiosis,50898
cryopreserved,50898
Factor XIII,50898
hepatitis B virus,50898
germination,50898
infrared,50898
antisocial personality disorder,50898
comparative method,50898
MHC class II,50898
ECG,50898
postprandial,50898
electrostatic,50898
luminosity,50898
Histiocytosis,50898
white matter,50898
FLRW,50898
hyperlysinemia,50898
Zooplankton,50898
person-centered approach,50898
virology,50898
Biodegradable polymer,50898
Amazonia,50898
Triturus cristatus,50898
ST-segment elevation myocardial infarction,50898
adsorption,50898
Hematocrit,50898
systolic blood pressure,50898
Phosphatase,50898
fuzzy cognitive map,50898
bibliometric,50898
cardiomyopathy,50898
polychlorinated dibenzo-p-dioxins,50898
Tuberculosis,50898
charmonium,50898
Jarrow,50898
semantics,50898
powder diffraction,50898
periventricular leukomalacia,50898
yeast,50898
Evo,50898
rimonabant,50898
bond,50898
incinerator,50898
phosphine,50898
watershed,50898
Measles virus,50898
Porphyromonas gingivalis,50898
demographic transition,50898
problem-based,50898
Displacement,50898
miglustat,50898
neutron star,50898
vasculitis,50898
cohort design,50898
distributed systems,50898
instructional design,50898
addiction,50898
congenital,50898
lens,50898
fetus,50898
IJmeer,50898
postpartum,50898
fountain,50898
isoprostanes,50898
Hypermobility,50898
economic globalisation,50898
UV radiation,50898
methotrexate,50898
endophenotypic,50898
J/psi,50898
time series analysis,50898
young stellar object,50898
peer victimization,50898
Fas,50898
glutamate dehydrogenase,50898
trout,50898
deforestation,50898
sentinel node,50898
Gaucher,50898
tensor,50898
lymphogranuloma venereum,50898
grass snake,50898
dynamical systems,50898
cyano group,50898
indirect calorimetry,50898
compactly supported,50898
molecular motors,50898
mitochondrial fission,50898
random walk,50898
Globalization,50898
Nitrogen,50898
GBM,50898
iridium,50898
paraplegia,50898
chloroform,50898
hypothermia,50898
Medulloblastoma,50898
psychoactive substance,50898
mycobacteria,50898
PS2,50898
myosin light chain-2,50898
atrial,50898
macroeconomic,50898
progestagens,50898
cognitive behavioural therapy,50898
IQ tests,50898
assay,50898
schema,50898
Allograft,50898
esophageal,50898
multimorbidity,50898
KBSs,50898
perfluorinated,50898
port wine,50898
osteotomy,50898
great apes,50898
"3,4-methylenedioxymethamphetamine",50898
ideal type,50898
Swedish,50898
subcellular localization,50898
pancreatic cancer,50898
allergic contact dermatitis,50898
black hole firewall,50898
dabigatran,50898
25-hydroxyvitamin D,50898
formidable,50898
bile,50898
Orius insidiosus,50898
SD,50898
melanocortin 4 receptor,50898
peptide,50898
temporomandibular joint,50898
benzyl,50898
hydrogen molecular ion,50898
magnetic resonance imaging,50898
carotenoids,50898
central limit theorem,50898
hypertension,50898
Fecal incontinence,50898
A 60,50898
L1210,50898
ANTARES,50898
model-theoretic,50898
microgravity,50898
stereotype threat,50898
carbon emissions,50898
Nanda,50898
Ottoman,50898
dextran,50898
XANES,50898
Gallstones,50898
modeling strategy,50898
Mokum,50898
venous thromboembolism,50898
subventricular zone,50898
pH,50898
umbilical cord blood,50898
Minor depression,50898
Transaldolase,50898
electrophoretic,50898
psychosis,50898
Vanadium,50898
Attention deficit hyperactivity disorder (ADHD),50898
stem cell,50898
Maputo,50898
transcription factor,50898
MEG,50898
Balneotherapy,50898
alkyl,50898
immune system,50898
meiotic,50898
kinematics,50898
dipole moment,50898
Landslide,50898
Western esotericism,50898
DSM-5,50898
short-selling,50898
lipase,50898
multithreaded,50898
Lachman test,50898
p53,50898
White matter,50898
multivariate analysis,50898
European Commission,50898
chimpanzee,50898
binary classification,50898
CO2,50898
Filipino,50898
task switching,50898
slum,50898
lanthanide,50898
supersymmetric particles,50898
assignment problem,50898
primate,50898
Tarantula,50898
Pyramidal cells,50898
Asthma,50898
necrotising,50898
convoy,50898
risk management,50898
interest points,50898
Impella 2.5,50898
dissociative identity disorder (DID),50898
entorhinal,50898
elasticity,50898
polychlorinated biphenyl,50898
Borrelia,50898
pharmacokinetics,50898
phoneme,50898
fixed-term contract,50898
reality television,50898
energy efficiency,50898
spectral density,50898
leukocyte,50898
chess,50898
B cells,50898
physical examination,50898
Lichen sclerosus,50898
molar,50898
capital structure,50898
L-band,50898
Escherichia coli,50898
Thai,50898
electron acceptor,50898
intravascular ultrasound,50898
Associative learning,50898
microsatellite,50898
spermatogenesis,50898
Air pollution,50898
Twin studies,50898
Higgs,50898
Small molecule,50898
speech perception,50898
mechanical ventilation,50898
pituitary insufficiency,50898
overactive bladder,50898
3-Hydroxyisobutyryl-CoA hydrolase,50898
Sunscreens,50898
Indonesia,50898
Raman spectra,50898
EOL,50898
Gram-positive,50898
BFR,50898
photodynamic therapy,50898
Desmoplakin,50898
Academic Medical Center,50898
glycosylphosphatidylinositol,50898
The transcript,50898
etiological,50898
manuscript,50898
Pap smear,50898
enantioselective,50898
catabolic pathway,50898
convex,50898
percept,50898
Buruli ulcer,50898
hydrophilic,50898
asymptotic,50898
atopic,50898
TEE,50898
Metabolomics,50898
pneumococcal conjugate vaccine,50898
Plantar fibromatosis,50898
Cladosporium fulvum,50898
The WHO,50898
serotype,50898
Monte Carlo method,50898
supernova remnant,50898
orthogonal,50898
C-type,50898
gonorrhea,50898
ethnographic,50898
magnesium,50898
dance4life,50898
NuSTAR,50898
RNA,50898
job control,50898
digital mammography,50898
hybrid,50898
The uptake,50898
Hereditary folate malabsorption,50898
FK,50898
metabolomics,50898
thyroid,50898
electrode,50898
dermatology,50898
Deep brain stimulation,50898
Economic evaluation,50898
cyclotron,50898
geography,50898
Yersinia,50898
resuscitation,50898
normative theory,50898
Fimbriae,50898
Serpentinization,50898
metastable,50898
Fluorescein,50898
insulin resistance,50898
family medicine,50898
transition path sampling,50898
Fusarium,50898
physiology,50898
prefrontal,50898
gram-negative,50898
In deep,50898
lung cancer,50898
Synthetic Biology,50898
Toll-like receptor,50898
Evangelical,50898
hippocampal,50898
triplet,50898
positive semidefinite matrices,50898
Congenital,50898
Care farming,50898
Adenoviruses,50898
main source,50898
stratigraphic,50898
self-regulated learning,50898
Alanine,50898
physician,50898
pragmatics,50898
wisdom teeth,50898
sonography,50898
end-of-life care,50898
case report,50898
UK,50898
thalamic nuclei,50898
splicing,50898
malignant,50898
oil palm,50898
Autism-Spectrum Quotient,50898
Heparan sulfate,50898
synchrotron,50898
fractal,50898
Langerhans,50898
Cardiovascular disease,50898
automatic speech recognition,50898
Dementia,50898
annealed,50898
Chlamydomonas reinhardtii,50898
cervical cancer,50898
metal-organic frameworks,50898
proteostasis,50898
IR spectroscopy,50898
neuroimaging,50898
real exchange rate,50898
Tyrosine,50898
endothelial,50898
deportation,50898
congruent,50898
sex offender,50898
aureus,50898
SVD,50898
interrater reliability,50898
outer membrane protein,50898
coral,50898
carbenes,50898
olfaction,50898
chemotherapy-induced peripheral neuropathy,50898
Point-of-care testing,50898
severe dementia,50898
Glioblastoma,50898
Prospect,50898
FRET,50898
tegmental,50898
type 2 diabetes mellitus,50898
exercise intolerance,50898
iodide,50898
pyrazine,50898
antibiotic,50898
Catastrophe theory,50898
Kepler,50898
eye movements,50898
autosomal dominant,50898
Bacteria,50898
Motor learning,50898
adrenalectomy,50898
kindergarten,50898
TGR5,50898
adjuvant,50898
symport,50898
media multitasking,50898
ethnobiological,50898
datafication,50898
Foxp3,50898
Breast cancer,50898
phosphorylation,50898
F-18,50898
fumarate,50898
dialysis,50898
paediatric,50898
Euronext,50898
Taiwan,50898
planet formation,50898
cerebral cortex,50898
extrapulmonary tuberculosis,50898
International Monetary Fund (IMF),50898
sampling frame,50898
hypothyroidism,50898
genetic variation,50898
climate system,50898
isometric,50898
social science,50898
The standard,50898
prostate cancer,50898
extinction coefficient,50898
Thiazide,50898
assortative mating,50898
disinterest,50898
Monism,50898
refugee,50898
thrombolysis,50898
FLT1,50898
methicillin-resistant Staphylococcus aureus,50898
systematic review,50898
conceptual model,50898
global warming,50898
neutrophils,50898
TP,50898
intestine,50898
Social Science Citation Index,50898
F4/80,50898
router,50898
oviposition,50898
Sub-Saharan Africa,50898
ketimines,50898
blazars,50898
Chlamydomonas,50898
A 39,50898
skin prick test,50898
common dab,50898
moth,50898
single nucleotide polymorphisms (SNPs),50898
biological specimen,50898
Abdominal obesity,50898
Muslim,50898
methanol,50898
Social Support Questionnaire,50898
HDN,50898
genetics,50898
alveoli,50898
HCV,50898
water governance,50898
piracy,50898
Congenital heart defects,50898
transformational leadership,50898
Attention Deficit/Hyperactivity Disorder,50898
vocational rehabilitation,50898
contingent negative variation,50898
reactive oxygen,50898
mHealth,50898
discrete-event systems,50898
cognitive behavioral therapy,50898
termite,50898
mite,50898
port wine stain,50898
field experiment,50898
Macrophages,50898
propylthiouracil,50898
acute respiratory distress syndrome (ARDS),50898
Liver enzyme,50898
ESR spectrum,50898
differential item functioning,50898
Tomograph,50898
Wolbachia,50898
multicellular,50898
optical spectrum,50898
noble metal,50898
Chernobyl,50898
endocrine-disrupting,50898
fine needle aspiration,50898
intervention mapping,50898
haptic,50898
sinusoidal,50898
intraocular lens,50898
lipid,50898
bile salts,50898
in-group,50898
cognition,50898
point source,50898
LC-MS,50898
peer-to-peer,50898
thin layer chromatography,50898
IRAS,50898
"2,2'-bipyridine",50898
photosystem II,50898
RPM,50898
residuals,50898
Polyketide synthase,50898
Banyoles,50898
HDM,50898
galaxies,50898
corticosterone,50898
Socio-Economic Panel,50898
Karel van Mander,50898
lysosomal,50898
MC,50898
laparoscopic,50898
Sepsis,50898
Cholesteryl ester storage disease,50898
leptin,50898
monozygotic (MZ),50898
hereditary angioedema,50898
regioselective,50898
Penicillium marneffei,50898
Chinese,50898
hyperon,50898
incontinence,50898
Multidimensional Personality Questionnaire,50898
musculoskeletal diseases,50898
system dynamics,50898
WB,50898
HLA,50898
interferometry,50898
competition law,50898
Perennial plants,50898
wealth inequality,50898
subsidiarity,50898
evaporation,50898
glass-forming liquid,50898
dengue,50898
arthrodesis,50898
linewidth,50898
Serotonergic,50898
ATLAS experiment,50898
cognitive agent,50898
ocular hypotensive,50898
Colorectal cancer,50898
playa,50898
wildfire,50898
oculomotor,50898
Type 2 diabetes,50898
emulsion,50898
DAT1,50898
Poisson,50898
Chronic granulomatous disease,50898
Forsterite,50898
Spike,50898
Spatial autocorrelation,50898
neonatal screening,50898
FNA,50898
time-series,50898
HAT-P-7,50898
theoretical chemistry,50898
glycomics,50898
Denitrification,50898
Genome-wide association study,50898
schadenfreude,50898
Dorus,50898
Computed Tomography,50898
ergodic,50898
toy,50898
VACTERL association,50898
Bacterial growth,50898
SCN10A,50898
lamivudine,50898
PPD,50898
Web literacy,50898
temporal lobe epilepsy,50898
epilepsy,50898
structure factor,50898
Psoriasis,50898
kallidin,50898
alveolar,50898
Bone mineral density,50898
Mineralocorticoid receptor,50898
spanning tree,50898
glomerular,50898
birth asphyxia,50898
structured interview,50898
behavioral genetic,50898
serotonin transporter,50898
glycation,50898
disjunct,50898
Mucopolysaccharidosis type I,50898
MA,50898
narcolepsy,50898
issue voting,50898
measurement invariance,50898
Salmonella enterica,50898
prefrontal cortex,50898
univariate,50898
ectopic pregnancy,50898
homeostasis,50898
orbital period,50898
Speleothem,50898
nanoparticles,50898
The Fear,50898
cytotoxic T cells,50898
Phosphine,50898
lymphoid,50898
biotransformation,50898
Mucin,50898
heritability,50898
Large Area Telescope,50898
gentrification,50898
diffusion,50898
h-index,50898
Prebiotics,50898
subsequence,50898
content validity,50898
Digital Humanities,50898
AURIGA,50898
process model,50898
intestinal microbiota,50898
public transport,50898
subgenera,50898
trimethylsilyl,50898
computed tomography,50898
hippocampi,50898
language acquisition,50898
Fiscal Compact,50898
case-control,50898
singlet,50898
conjoint analysis,50898
oral cavity,50898
Turkey,50898
condom,50898
cultural globalization,50898
structural model,50898
critical behaviour,50898
head rest,50898
co-precipitation,50898
dimensional approach,50898
prenatal screening,50898
biological control,50898
physiotherapy,50898
Amsterdam,50898
MT,50898
tyrosine kinase,50898
Derangement,50898
standard deviation,50898
advantageous,50898
community acquired pneumonia,50898
flavoprotein,50898
bilingualism,50898
Adenosine,50898
Somatic embryogenesis,50898
risk society,50898
partition,50898
ultra-endurance,50898
cardiopulmonary resuscitation,50898
Buss,50898
immunoassay,50898
reprocessing,50898
Anaphylaxis,50898
crystallization,50898
Sonic hedgehog,50898
cardiac arrest,50898
colitis,50898
Goblet cell,50898
Constipation,50898
borderline personality disorder,50898
SEM,50898
Hidradenitis suppurativa,50898
motor unit,50898
causality,50898
fucosyltransferase,50898
exemplification theory,50898
Abdominal pain,50898
profile likelihood,50898
gamma-ray burst,50898
paranormal,50898
open-source,50898
Major Depressive Disorder (MDD),50898
optical tomography,50898
social sciences,50898
ER,50898
radiation therapy,50898
Paramutation,50898
transepidermal water loss,50898
fracture mechanics,50898
genetically modified foods,50898
The onset,50898
Hemidesmosomes,50898
finitism,50898
user interface,50898
HM,50898
microquasar,50898
vitiligo,50898
Indeterminism,50898
Irion,50898
zymosan,50898
adiponectin,50898
Developmental Coordination Disorder,50898
Roman glass,50898
ATP-sensitive K+,50898
Deinstitutionalisation,50898
mannose-binding lectin,50898
Multiple sclerosis,50898
hydrophobicity,50898
A 3,50898
HPV,50898
infotainment,50898
antitumour,50898
electromagnetic,50898
SL,50898
financial literacy,50898
Schwann cells,50898
ultraviolet,50898
thrombin,50898
longitudinal study,50898
South African War,50898
ingroup,50898
autistic spectrum disorders,50898
Fifty-one,50898
absenteeism,50898
G protein-coupled receptor,50898
proprioceptive,50898
Obesity,50898
multinomial,50898
cognitive development,50898
virus,50898
matrices,50898
hexapods,50898
harmonic,50898
peanut,50898
cell division,50898
deconvolution,50898
proper motion,50898
PCBs,50898
pheochromocytoma,50898
combustion,50898
herpes,50898
menarche,50898
Labor,50898
infantile colic,50898
Chlamydia trachomatis,50898
Apoptosis,50898
methionine synthase,50898
Minocycline,50898
type II diabetes,50898
item response theory,50898
claudin,50898
intensive care unit (ICU),50898
intelligence quotient,50898
isomerism,50898
Grid computing,50898
neck cancer,50898
Post Traumatic Stress Disorder,50898
transcranial stimulation,50898
T-4,50898
Finsler metric,50898
S-layer,50898
2D,50898
Johannesburg,50898
hypothalamic-pituitary-adrenal (HPA) axis,50898
Gaussian process,50898
neuropathology,50898
EXOSAT,50898
polarimetry,50898
hypoxia,50898
homologous,50898
deuterated,50898
Alkane,50898
social network,50898
acoustics,50898
IgG1,50898
spin-polarized,50898
3'-untranslated region,50898
emerging markets,50898
Skeletal muscle,50898
rational choice,50898
Immunoglobulins,50898
celiac disease,50898
ethanol,50898
satellite television,50898
risk perception,50898
Flanders,50898
Pericarditis,50898
nanoparticle,50898
serological,50898
sediment,50898
Forster,50898
cytoskeletal,50898
immune deficiency,50898
ERP,50898
Fabry disease,50898
antimycotic,50898
Lake Victoria,50898
belief revision,50898
Statistical power,50898
Cape Town,50898
DOTS strategy,50898
leprosy,50898
H2O2,50898
Sigma,50898
Sphingosine-1-phosphate,50898
thermochemistry,50898
subgroup,50898
leukodystrophies,50898
Frontotemporal dementia,50898
dual-task,50898
test-retest reliability,50898
city network,50898
aromatic,50898
Public health,50898
Mucormycosis,50898
Indonesian,50898
radical polymerisation,50898
ischaemia,50898
glycoprotein,50898
metrology,50898
Germline,50898
cosmic ray,50898
brane,50898
indium,50898
whole-body MRI,50898
HIFI,50898
functional connectivity,50898
density-functional theory,50898
benzodiazepine,50898
renormalization group,50898
Whiplash,50898
USC,50898
evidence-based medicine,50898
leader-member exchange,50898
beta-catenin,50898
gallbladder,50898
HBr,50898
vector,50898
diabetic foot,50898
Parkinsonian,50898
cytotoxic,50898
stuttering,50898
dynamic data structures,50898
heuristic,50898
type 2 diabetes,50898
Low birth weight,50898
Rhodopseudomonas,50898
melanocytes,50898
Cell-mediated immunity,50898
fertility preservation,50898
Human height,50898
Uncoupling protein,50898
endometriosis,50898
fistula,50898
visual short-term memory,50898
animal physiology,50898
cleavage stimulation factor,50898
Reactive oxygen species (ROS),50898
OC,50898
rectifier,50898
Salmonella,50898
Fall prevention,50898
CD20,50898
Anion,50898
Valproate,50898
Sentiment Analysis,50898
meta-analyses,50898
mitochondrial,50898
urinary tract,50898
Pulmonary Hypertension,50898
hip fractures,50898
nervous system,50898
panel survey,50898
statistical inference,50898
K-ras,50898
montane,50898
earnings management,50898
elastic energy,50898
photoexcitation,50898
movement disorder,50898
episodic memory,50898
Fibrinogen,50898
Fracture,50898
enema,50898
Belgium,50898
actin,50898
coeliac disease,50898
liquid chromatography,50898
hypothalamic-pituitary-adrenal axis,50898
amyotrophic lateral sclerosis (ALS),50898
L-asparaginase,50898
current literature,50898
case fatality rate,50898
granzyme,50898
electrochemical,50898
acceleration,50898
Alcohol abuse,50898
otosclerosis,50898
Sciatica,50898
object relations,50898
phenylalanine,50898
computerized physician order entry,50898
electrophilic,50898
Utrecht,50898
ITN,50898
histone,50898
carbonate,50898
renewable,50898
eutrophic lake,50898
mitotic,50898
publication bias,50898
Sudden cardiac death,50898
MIBG,50898
association studies,50898
bone mineral density,50898
Photometry,50898
Randstad,50898
innate immune response,50898
lectin,50898
health surveillance,50898
UTSA,50898
Silica,50898
white South African,50898
gold standard,50898
Molecular mechanics,50898
lymphoma,50898
ribose-5-phosphate isomerase deficiency,50898
SDQ,50898
acculturation,50898
semiconductor,50898
dendritic cell,50898
triacetone triperoxide,50898
discriminant validity,50898
Apolipoprotein E,50898
chorioretinitis,50898
hepatitis C virus,50898
Norwegian,50898
Tibetan Plateau,50898
attachment disorder,50898
neuropsychiatric,50898
Surviving Sepsis Campaign,50898
null hypothesis,50898
supergravity,50898
Organon,50898
Raman scattering,50898
Death Valley,50898
eutrophication,50898
NADPH,50898
X-linked recessive,50898
DS,50898
Integrated Water Resources Management,50898
erythropoietin,50898
Visual Basic,50898
cognitive-behavioral therapy (CBT),50898
brominated flame retardant,50898
Immunocompromised,50898
game theoretic,50898
plantar pressure,50898
ATPase,50898
East Germany,50898
influenza A,50898
effective radiation dose,50898
denoising,50898
type-II,50898
curvature,50898
priming,50898
genetic counseling,50898
Haplotype,50898
PML,50898
fat,50898
sea-level rise,50898
acenaphthene,50898
Pancreatic cancer,50898
Lactobacillus acidophilus,50898
coronary heart disease,50898
Lyman-alpha,50898
cytidine deaminase,50898
oxidative deamination,50898
Soil contamination,50898
Evolutionary robotics,50898
Mild cognitive impairment,50898
mass balance,50898
Coronary artery disease,50898
serotonergic,50898
European integration,50898
reservoir,50898
computer vision,50898
CTA,50898
inverted pendulum,50898
chloroperoxidase,50898
Cattell-Horn-Carroll,50898
creatine monohydrate,50898
high functioning autism,50898
Basel II,50898
Latent class analysis,50898
parametric amplification,50898
metric,50898
Olympus,50898
Toda,50898
genetic counsellor,50898
humanitarianism,50898
choice architecture,50898
electrocardiography,50898
Tissue factor,50898
corpus callosum,50898
Inflammatory bowel disease,50898
Carboplatin,50898
stock market,50898
agglutinin,50898
Aortic valve stenosis,50898
lymphocytes,50898
kinesthesia,50898
social identity,50898
depressed mood,50898
near-infrared,50898
Monoclonal antibody,50898
neutrino,50898
Standard Model,50898
hemiplegia,50898
Septic shock,50898
longitude,50898
non-parametric,50898
Leukoencephalopathy,50898
glass transition,50898
Western Europe,50898
Glucose,50898
WAIS,50898
magnetic response,50898
semiotics,50898
microbiome,50898
ambidexterity,50898
teaching hospital,50898
Direct Instruction,2869
"Indoleamine 2,3-dioxygenase",50898
normal form,50898
CGRO,50898
gas chromatography-mass spectrometry,50898
Microtubule,50898
RSI,50898
vulvar cancer,50898
spontaneous emission,50898
Nussbaumersee,50898
longitudinal survey,50898
Jakarta,50898
PI3K,50898
triangulation,50898
rubidium,50898
inflorescence,50898
SPET,50898
B-type,50898
hypovolemic shock,50898
MR,50898
Dexmedetomidine,50898
Nimesulide,50898
within-subject design,50898
social choice theory,50898
leucocyte,50898
SDH,50898
Posaconazole,50898
silica,50898
mucosal melanoma,50898
abdominal aorta,50898
flour,50898
optically active,50898
Bohr atom,50898
Sydney,50898
bladder,50898
femtosecond laser,50898
AP-1 transcription factor,50898
Dihydroxyacetone phosphate,50898
terrestrial,50898
quasi-periodic oscillations,50898
latent heat,50898
filter paper,50898
health informatics,50898
corporate social responsibility (CSR),50898
Stratum corneum,50898
hyperlipidaemia,50898
ECMWF,50898
visual acuity,50898
software engineering,50898
diabetes,50898
High-density lipoprotein,50898
Hermann von Helmholtz,50898
Reverse transcriptase,50898
T-90,50898
CD40,50898
atherosclerotic,50898
Glutathione,50898
sensitivity analysis,50898
heteroskedasticity,50898
I.D.,50898
T-lymphocyte,50898
externalizing behavior,50898
cybersecurity,11631
post hoc,50898
Inverse Gaussian,50898
Realgar,50898
neonatology,50898
autocorrelation,50898
Vibrational spectroscopy,50898
powerset,50898
Rheumatology,50898
radius fractures,50898
EUS,50898
monocytes,50898
Austria,50898
genetically engineered,50898
television system,50898
scientometrics,50898
Social housing,50898
Boolean function,50898
Dwarf nova,50898
Photoacoustic imaging,50898
thermal comfort,50898
High anion gap metabolic acidosis,50898
Emerton,50898
desorption,50898
conformal field theories,50898
mismatch negativity,50898
epidemiology,50898
point cloud,50898
ABC-transporter,50898
ultrasonic,50898
histocompatibility,50898
liberal internationalism,50898
subfertility,50898
muon,50898
superelastic,50898
hoatzin,50898
necrosis,50898
tocolysis,50898
psychodynamic,50898
cleft lip,50898
CD8,50898
glomerular filtration,50898
inositol,50898
neoplastic,50898
heterogeneous agent,50898
5-HT4,50898
intramolecular,50898
acute lymphoblastic leukemia (ALL),50898
hematocrit,50898
parton,50898
Francisella,50898
Randomized controlled trial,50898
missing data,50898
acute myocardial infarction,50898
chemokines,50898
arthroplasty,50898
central nervous system (CNS),50898
cardinal,50898
fallacy,50898
neutron,50898
pneumoperitoneum,50898
dialysate,50898
Pteropods,50898
immunohistochemically,50898
ADB,50898
motor system,50898
small open economy,50898
Hydroquinone,50898
public health,50898
public good,50898
hypertrophic,50898
predatory,50898
econometric model,50898
universalism,50898
rhizotomy,50898
iridium-192,50898
Anhedonia,50898
KM3NeT,50898
intake fraction,50898
RT,50898
environmental policy,50898
manganese,50898
Th1,50898
stage-structured,50898
intrauterine insemination,50898
thrombopoietin,50898
Celiac disease,50898
Susan Fiske,50898
revascularization,50898
battalion,50898
homology,50898
Desulfotomaculum,50898
activity-based costing,50898
magnetohydrodynamics,50898
phenotypic plasticity,50898
phenotypic heterogeneity,50898
internal carotid artery,50898
left ventricular failure,50898
kidney,50898
Cross docking,50898
Arecibo,50898
FLS,50898
spectroscopy,50898
HBsAg,50898
overdamped,50898
Rotaxane,50898
emotion regulation,50898
Serotonin,50898
dialect,50898
exploratory data analysis,50898
false peak,50898
phonology,50898
rapamycin,50898
interleukin-1,50898
mesalazine,50898
small-molecule,50898
Morley,50898
immunoglobulin,50898
hyperemic,50898
single crystal,50898
urinary tract infections,50898
BRCA1,50898
metabolic network,50898
valproate,50898
carotid artery,50898
photoacoustic imaging,50898
fibroblast,50898
cyanobacteria,50898
dust mite,50898
Miltefosine,50898
neuroendocrinology,50898
chronic obstructive pulmonary disease (COPD),50898
Microcystis aeruginosa,50898
adenosine triphosphate,50898
Acute myeloid leukemia,50898
Upper Rhine Graben,50898
5-HT,50898
Mycoplasma pneumoniae,50898
subjective well-being,50898
forensic DNA analysis,50898
screw,50898
Specific heat,50898
veil,50898
Fluorescence,50898
specification,50898
MST1,50898
haemodynamics,50898
Guy Debord,50898
roughness length,50898
Neurofibromatosis type 1,50898
neuroblastoma,50898
Tailor-made,50898
Levisticum officinale,50898
positive definite,50898
imine,50898
ZAMS,50898
bone resorption,50898
monkey,50898
seismology,50898
Dependence logic,50898
media accountability,50898
morphosyntax,50898
Santa Marta,50898
MAPT,50898
chemical warfare,50898
Hepatic steatosis,50898
nitrite reductase,50898
atherosclerotic plaques,50898
AMP,50898
Lutheran,50898
phenotypical,50898
P2P,50898
Magnetar,50898
salpingostomy,50898
18 months,50898
Acridine orange,50898
corticosteroid,50898
carbon dioxide,50898
tardiness,50898
invertible,50898
Melanoma,50898
type I interferon,50898
call center,50898
cataclysmic variables,50898
main sequence,50898
CTO,50898
coronary artery disease,50898
Markov,50898
omnivorous,50898
Ambulatory blood pressure,50898
Greenland,50898
blindsight,50898
voter turnout,50898
India,50898
retina,50898
pulmonary arterial hypertension,50898
Rossi X-Ray Timing Explorer,50898
human capital,50898
neuropathic,50898
gametes,50898
sludge,50898
cogeneration,50898
racemic,50898
Test,50898
congenital heart disease,50898
oral mucosa,50898
Michel parameters,50898
alloantigens,50898
pneumonia,50898
high-mass X-ray binary,50898
receptor antagonist,50898
response surface,50898
fish-eye disease,50898
bio-ethanol,50898
tau,50898
medulloblastoma,50898
neural tube defects,50898
mammography,50898
TNF,50898
Myanmar,50898
Zutphen,50898
Electromigration,50898
dental decay,50898
untold,50898
psychopathy,50898
medicine,50898
Systemic inflammation,50898
Lie group,50898
unipotent,50898
Drug-induced,50898
econometric analysis,50898
numerical integration,50898
isocyanide,50898
Glimepiride,50898
L-2-Hydroxyglutaric aciduria,50898
biogeochemistry,50898
Tangier disease,50898
AAA,50898
social movement,50898
Epstein-Barr virus,50898
phase 2 study,50898
palliative,50898
discriminant,50898
Shannon wavelet,50898
Indian Ocean,50898
Deforestation,50898
subcutis,50898
Glutamine synthetase,50898
gravitational waves,50898
Trimethoprim,50898
procedural justice,50898
observational study,50898
gravity,50898
dental caries,50898
Protein S,50898
stabilizing selection,50898
randomized clinical trial,50898
Enteropathy-associated T-cell lymphoma,50898
structural alignment,50898
inguinal,50898
innate immune system,50898
diagnostic model,50898
inelastic scattering,50898
Cirebon,50898
VFX,50898
telecommunications,50898
helium,50898
photoluminescence,50898
Gas chromatography,50898
fly ash,50898
non-small cell lung carcinoma,50898
MCD,50898
K3,50898
tetramethyl,50898
alfentanil,50898
circadian,50898
social stratification,50898
product placement,50898
arithmetic,50898
6 years,50898
General practitioner,50898
glutamine,50898
hypothalamus,50898
mild cognitive impairment,50898
unfamiliar faces,50898
Anomie,50898
monoamine,50898
Class A,50898
informal caregivers,50898
red blood cells,50898
circumscription,50898
aspirated,50898
The BIG score,50898
fluorescence,50898
autoantibodies,50898
HLA-DRB1,50898
Foreground-Background,11029
male contraceptive,3228
Kronecker product,50898
Cepheid,50898
aphasia,50898
human genome,50898
Magnetization,50898
FRBs,50898
subgroup analysis,50898
Vitamin D,50898
Inflammation,50898
cost-benefit analysis,50898
Mitochondria,50898
Amacayacu,50898
Polycomb-group,50898
simultaneous equation,50898
global economic crisis,50898
morbidity,50898
circadian rhythms,50898
Type Ia,50898
toxin,50898
CD16,50898
V2,50898
Nissen fundoplication,50898
dental radiographs,50898
Hepatitis B virus (HBV),50898
preterm birth,50898
sentinel lymph node,50898
Bioturbation,50898
TSH,50898
Properdin deficiency,50898
structural equation modeling,50898
Green function,50898
simulated patient,50898
nonparametric regression,50898
chemokine receptor,50898
epithelium,50898
ablative,50898
cholinergic,50898
solid hydrogen,50898
chemistry,50898
adds,50898
deep vein thrombosis,50898
Galactic Center,50898
Apolipoprotein C3,50898
EUV,50898
Dolomites,50898
Periodontitis,50898
rhythm,50898
European Social Fund,50898
parasite,50898
commensal,50898
NKX2-5,50898
ICMJE,50898
Upper Carboniferous,50898
greenhouse gas (GHG) emissions,50898
bladder cancer,50898
endotoxin,50898
income redistribution,50898
Large Hadron Collider (LHC),50898
chromatography,50898
cardiac pacemaker,50898
sedimentary,50898
Bacterial meningitis,50898
cardinality,50898
Gypsies,50898
choice function,50898
transaction costs,50898
tobacco control,50898
atrazine,50898
Panic disorder,50898
Pleconaril,50898
wavelet,50898
kinetic energy,50898
hepatocytes,50898
thrombotic,50898
artery spasm,50898
grand-canonical,50898
likelihood ratios,50898
wetland,50898
Schumpeter,50898
Citizen journalism,50898
osteosarcoma,50898
MPT,50898
brain cancer,50898
four-momentum,50898
acute lymphoblastic leukaemia,50898
hemisphere,50898
habitat,50898
reverse transcriptase,50898
CFTR,50898
internal fixation,50898
climate change mitigation,50898
BA,50898
CCR2,50898
Helicobacter pylori,50898
Community-based conservation,50898
vaginal examination,50898
frame field,50898
Aceh,50898
ovarian cancer,50898
Port wine,50898
Barbeya,50898
Cytokine,50898
tripod,50898
tenofovir,50898
Zidovudine,50898
Gynaecomastia,50898
electroweak,50898
meditation,50898
geometry,50898
"Academic Press, Inc.",50898
acute lymphoblastic leukemia,50898
p24 antigen,50898
subspace,50898
vestibular nerve,50898
turnover intentions,50898
MCQ,50898
crust,50898
systole,50898
ankylosing spondylitis,50898
psychometrics,50898
tuberous sclerosis complex,50898
cervical,50898
Shear stress,50898
public policy,50898
hexamethyl Dewar benzene,50898
total synthesis,50898
Pertussis,50898
Intestine,50898
RHD,50898
atacicept,50898
abdominal obesity,50898
alloimmune,50898
optical lattice,50898
genotype,50898
factor XI,50898
generative model,50898
endometrial,50898
headache,50898
gadoversetamide,50898
Picornavirales,50898
stylistics,50898
drug resistance,50898
vagus nerve,50898
aerobic exercise,50898
Basal cell,50898
antiferromagnetic,50898
Non-steroidal anti-inflammatory drugs,50898
complex plane,50898
spleen,50898
Computer-mediated communication,50898
single nucleotide polymorphism (SNP),50898
genera,50898
cross-correlation,50898
regulatory focus theory,50898
Logistic regression,50898
convergent validity,50898
bioconcentration,50898
austerity,50898
chronic kidney disease,50898
Glucocorticoid,50898
HLA-B27,50898
circumstellar disk,50898
leukoencephalopathy,50898
active site,50898
ex-ante,50898
reversed-phase,50898
PCO2,50898
IR spectrum,50898
diamond anvil,50898
autism spectrum,50898
lipoprotein-associated phospholipase A2,50898
publish-subscribe,50898
Allolobophora chlorotica,50898
transcription factors,50898
21 days,50898
MHz,50898
phase diagram,50898
Eczema,50898
SO3,50898
statistical significance,50898
Huntington,50898
dimethyl sulfide,50898
prism,50898
HST,50898
Neurofeedback,50898
Rendu-Osler-Weber,50898
factor productivity,50898
Finland,50898
stressor,50898
chitinolytic,50898
lysosomal storage disorder,50898
Weathering,50898
Haplosclerida,50898
vagina,50898
Radiofrequency ablation,50898
Mahabharata,50898
Methylphenidate,50898
Peer-to-peer file sharing,50898
horizontal integration,50898
blink reflex,50898
Lactobacillus,50898
isotropic,50898
cyclosporin,50898
panic disorder,50898
ATP,50898
FoxK2,50898
calcaneal fracture,50898
Interferon beta,50898
genetic architecture,50898
Hereditary angioedema,50898
endosonography,50898
Fourth International,50898
Spectroscopy,50898
mineral,50898
glutamine synthetase,50898
early-successional,50898
ischemic,50898
recommended dietary allowance,50898
acupuncture,50898
three-valued,50898
stellar evolution,50898
Interferon-gamma,50898
Screed,50898
randomised controlled trial,50898
gastroesophageal reflux disease,50898
anthropogenic,50898
blocker,50898
robotics,50898
blast wave,50898
electron transfer,50898
Caffeine,50898
hyperfine structure,50898
catabolism,50898
Rohit Parikh,50898
daN,50898
Microfluidic,50898
dothiepin,50898
boreal,50898
lambda-calculus,50898
somatic,50898
aeolian,50898
Gilbert,50898
saccadic,50898
self-efficacy,50898
mental illness,50898
SCI,50898
Peripheral vision,50898
acridone,50898
Tanzania,50898
spatial heterogeneity,50898
conformation,50898
Manchester,50898
auditory brainstem response,50898
pathology,50898
IgE,50898
deterrence,50898
discount factor,50898
psychostimulant,50898
latent class analysis,50898
band structure,50898
adhesive,50898
cirrhosis,50898
general practitioner,50898
delimitation,50898
D-dimer,50898
acute lung injury,50898
currency crisis,50898
TI,50898
loading dose,50898
Romanian,50898
atomic oxygen,50898
DAB,50898
beta-blockers,50898
non-Abelian,50898
squark,50898
Androgen receptor,50898
Structural genomics,50898
Hubble Space Telescope (HST),50898
vacuum,50898
Germany,50898
additive manufacturing,50898
unsafe sex,50898
cherish,50898
ecosystem services,50898
Sodium nitroprusside,50898
gas chromatography,50898
mastoidectomy,50898
MAXI J1659-152,50898
salivary gland,50898
Riemann sphere,50898
Outlier,50898
Nijar,50898
craniofacial,50898
Hyperthermia,50898
spoken dialog systems,50898
alkenyl,50898
coal,50898
Doro,50898
histidine,50898
Decolonization,50898
Charcot-Marie-Tooth disease,50898
eigenvalues,50898
management systems,50898
demography,50898
rivastigmine,50898
Serbian,50898
radical hysterectomy,50898
rate-limiting step,50898
UEDs,50898
classical test theory,50898
Betulinic acid,50898
Integrated care,50898
atmospheric circulation,50898
learning theory,50898
fenretinide,50898
Public administration theory,50898
Lacrimal gland,50898
spider mite,50898
autonomic nervous system,50898
Preterm birth,50898
Acute renal failure,50898
chromophore,50898
substituent,50898
cuprate,50898
Minimal Supersymmetric Standard Model,50898
fast food,50898
tail dependence,50898
European Convention,50898
Cytidine triphosphate,50898
X-ray crystallography,50898
stereological,50898
Guatemala,50898
Ice sheet,50898
Fluorogenic,50898
Multidrug-resistant tuberculosis,50898
Lanius,50898
Josephson,50898
water dimer,50898
persistent left superior vena cava,50898
Thailand,50898
Very Large Array,50898
tumour necrosis factor,50898
malnutrition,50898
transpiration,50898
non-small-cell lung cancer,50898
B-cell,50898
PNP,50898
immunotherapy,50898
aldehyde dehydrogenase,50898
permutation,50898
autoregressive process,50898
Offshoring,50898
Lung cancer,50898
biopolymer,50898
resource management,50898
ankle-foot orthoses,50898
ICC,50898
Plant sterol,50898
caudate-putamen,50898
T cell,50898
Phylogenetic,50898
Tsurumi,50898
Czech Republic,50898
REDD+,50898
R-2,50898
histo,50898
rhombohedral,50898
progressors,50898
Leiden,50898
VAD,50898
treadmill,50898
social insurance,50898
ethambutol,50898
glycerol,50898
EDTA,50898
ROS,50898
DBS,50898
IgG4,50898
Tamoxifen,50898
infrared spectroscopy,50898
doubling time,50898
fimbriae,50898
amplicon,50898
sphingosine-1-phosphate receptor,50898
workstation,50898
slit lamp,50898
DNA methylation,50898
string field theory,50898
incretin,50898
tuberous sclerosis,50898
Morita equivalent,50898
meningococcal disease,50898
hydroxylation,50898
norepinephrine,50898
MVD,50898
milk,50898
bladder infection,50898
CIS,50898
Israel,50898
stades,50898
accretion disk,50898
D90,50898
endosulfan,50898
vesicles,50898
CH3CN,50898
consumer confidence,50898
TCOF1,50898
benzene,50898
absorption coefficient,50898
apoCIII,50898
mucosa,50898
VLT,50898
DIPG,50898
extreme ultraviolet,50898
biosynthesis,50898
Linear regression,50898
NO synthase,50898
supersonic,50898
gluten,50898
Whole,50898
Panic Disorder,50898
tissue culture,50898
encephalopathy,50898
magnetic field,50898
placebo,50898
cooperative binding,50898
CMV,50898
stannous fluoride,50898
AST,50898
CERN,50898
clustering coefficient,50898
Na2S,50898
mmol/L,50898
antimicrobial resistance,50898
dome,50898
secretagogue,50898
methionine,50898
closed-form expression,50898
partial derivative,50898
afm,50898
vena portae,50898
protein-protein interaction,50898
prophylaxis,50898
CGT,50898
oncoprotein,50898
acetone,50898
3-D,50898
CD11b,50898
rarefaction,50898
orangutan,50898
binge drinking,50898
construals,50898
military dictatorship,50898
SNPs,50898
superoxide dismutase,50898
frazil ice,50898
electric field strength,50898
Urology,50898
confirmatory factor analysis,50898
dystonia,50898
abdominal examination,50898
albumin/creatinine ratio,50898
silent,50898
oblivious transfer,50898
speech intelligibility,50898
cryoprotectants,50898
mouse,50898
CBV,50898
spectroscopic binaries,50898
diverticulitis,50898
risk assessment,50898
Sci,50898
LkCa 15,50898
MEDLINE,50898
MLC,50898
blackbody,50898
RIXS,50898
Cox regression,50898
ultrastructure,50898
quartz,50898
stricture,50898
stent,50898
paramagnetic relaxation,50898
Dirac,50898
PFOA,50898
microarray,50898
IHL,50898
ER stress,50898
angular gyrus,50898
phase transition,50898
Akt,50898
calcite,50898
caspase,50898
diurnal,50898
Amblyseius,50898
logrank test,50898
mastectomy,50898
aromatic amino acids,50898
tuna,50898
MRSA,50898
vascular resistance,50898
urea,50898
septic shock,50898
BP,50898
parasitic disease,50898
ventriculomegaly,50898
Convergent validity,50898
groundwater,50898
cluster analysis,50898
Rothia,50898
oven,50898
antiparallel,50898
essential tremor,50898
interleukin-6,50898
CO2 laser,50898
Morris,50898
femoral neck,50898
Bmp2,50898
TRAF1,50898
Southern blot,50898
conjunctival hyperemia,50898
archive,50898
canonical Wnt pathway,50898
reionization,50898
nucleoside reverse transcriptase inhibitor,50898
myeloid,50898
cholangiocytes,50898
MoAb,50898
nucleotides,50898
anatomy,50898
Spinal cord,50898
linear regression,50898
nucleus,50898
calorimeter,50898
high performance liquid chromatography,50898
VEGF receptor,50898
chloride,50898
T2DM,50898
monocyte,50898
Immunohistochemistry,50898
metallo,50898
estrogen,50898
forceps,50898
Exemestane,50898
relativistic,50898
Sudan,50898
P450,50898
saccades,50898
volcanic,50898
smoking cessation,50898
Physical activity level,50898
sodium chloride,50898
Dallas,50898
genome-wide association study,50898
Triticum,50898
pravastatin,50898
San Diego,50898
odds ratio,50898
selection marker,50898
vinblastine,50898
accretion disc,50898
tether,50898
TP53,50898
microscopy,50898
RT-PCR,50898
globular cluster,50898
supercooling,50898
ITF,50898
oligodendrocyte,50898
alanine aminotransferase,50898
Seyfert,50898
Wagner,50898
BMI1,50898
Tachyphylaxis,50898
Scar,50898
OI,50898
Douglas,50898
IGT,50898
curcumin,50898
tropical forest,50898
BrAC,50898
MMX,50898
1-octene,50898
panic disorder severity scale,50898
codon,50898
individual computers,50898
CPOE,50898
multiple regression,50898
strings,50898
bilinear interpolation,50898
thermoluminescence,50898
shrub,50898
anesthesia,50898
nitrocellulose,50898
precipitation,50898
PageRank,50898
t-PA,50898
sucrose,50898
PCM,50898
glycolysis,50898
time-lapse,50898
nanomaterials,50898
The ROM,50898
EXO,50898
X-ray powder diffraction,50898
abdominal pain,50898
Forskolin,50898
physiotherapist,50898
ab initio,50898
collinear,50898
simulation preorder,50898
keV,50898
nicotine,50898
"1,3-butadiene",50898
Seroconversion,50898
atherogenesis,50898
Canestrini,50898
KIR3DL1,50898
eGFR,50898
block copolymer,50898
immunosuppressive,50898
NK cells,50898
Solanum lycopersicum,50898
vacuole,50898
fasting,50898
diapause,50898
N200,50898
masseter,50898
effective temperature,50898
acetazolamide,50898
apoptosis,50898
recessive,50898
venous thrombosis,50898
clonogenic assay,50898
magnesium chloride,50898
IU,50898
Tasmania,50898
zeta potential,50898
secondary structure,50898
chromatographic,50898
horizontal branch,50898
vitamin B,50898
tributyltin,50898
QFT,50898
aroid,50898
SCN,50898
dimensionless,50898
slough,50898
UV,50898
Axis,50898
keratin,50898
food chain,50898
Endotoxin,50898
Fundamental frequency,50898
DMSS,50898
methane,50898
nuclei,50898
Medical literature,50898
genotype frequencies,50898
Atlantic,50898
collective guilt,50898
tunnel,50898
Lysine,50898
Spain,50898
10 minutes,50898
hyperfine,50898
mitoxantrone,50898
outtake,50898
Ga,50898
erythrocyte,50898
effective field theory,50898
classical complement pathway,50898
streptozotocin,50898
90 days,50898
ciliary muscle,50898
pla,50898
sulfur,50898
metatarsal,50898
collagen type I,50898
DRD2,50898
dehydration,50898
vascular compliance,50898
lamina propria,50898
skin-prick,50898
Arecibo Observatory,50898
haemoglobin,50898
AIP Publishing,50898
EDS,50898
kpc,50898
carotid,50898
Koebner phenomenon,50898
EPR,50898
spinal cord,50898
confidence level,50898
tetraplegia,50898
specular,50898
"2,3-dimethylbutane",50898
decision strategy,50898
Biopsies,50898
blood glucose,50898
transgene,50898
biofuel,50898
PsycINFO,50898
angstrom,50898
IVIg,50898
ferrimagnetic,50898
effective dose,50898
RV,50898
5-HT1B receptor,50898
radical cation,50898
chemical potential,50898
consumer activism,50898
Hexane,50898
Wielen,50898
quasi-regular,50898
intravenously,50898
Ashkenazi,50898
HSV,50898
lorazepam,50898
condyle,50898
ovarian reserve,50898
Algeria,50898
myocardium,50898
FAO,50898
neurological examination,50898
AP,50898
cytochromes,50898
Andean Coot,50898
The Mirage,50898
semiconducting,50898
DC-SIGN,50898
Tim,50898
OS,50898
IgG,50898
Phyllanthus,50898
por,50898
major locus,50898
estrogen receptor,50898
colposcopy,50898
B 3,50898
Logan,50898
common reagents,50898
thin disk,50898
heterocycle,50898
TL,50898
medical oncology,50898
staurosporine,50898
ITT,50898
pyramidal cell,50898
centrifugation,50898
chelated,50898
GPE,50898
EMR2,50898
PVR,50898
HDL,50898
protein precursor,50898
surfactant,50898
glucose tolerance,50898
triphenylene,50898
GFP,50898
colonoscopy,50898
anaphylaxis,50898
hip fracture,50898
2MASS,50898
acyl-CoA,50898
Thermometer,50898
thrombophilia,50898
sexual recidivism,50898
dibromomethane,50898
surface runoff,50898
STN,50898
HCP,50898
ribosomes,50898
apoptotic,50898
fever,50898
ammonia,50898
satellite,50898
Burkina Faso,50898
IL-4,50898
Faber polynomials,50898
AFI,50898
cofactor,50898
EORTC,50898
barefoot,50898
NMR spectroscopy,50898
flow cytometry,50898
regulatory T cells,50898
superior cervical ganglion,50898
Aethionema,50898
political science,50898
occipital,50898
HF,50898
crossover,50898
lichen,50898
Kentucky,50898
octree,50898
prop-,50898
T1,50898
T-50,50898
T-cells,50898
cortical bone,50898
media dependency theory,50898
oligosaccharides,50898
reprotoxic,50898
Late Triassic,50898
n-propyl,50898
SNR,50898
Scheimpflug,50898
Aggregatibacter,50898
IQ,50898
enamel,50898
petrophysical,50898
Argentina,50898
Directly Observed Treatment,50898
coronary occlusion,50898
representation theory,50898
DAS28,50898
metallothionein,50898
steepest descent,50898
molecular dynamics,50898
popliteal vein,50898
vasodilating,50898
Kanizsa,50898
non-competitive inhibitors,50898
N-terminal,50898
ventricle,50898
radiotherapy,50898
SNP,50898
hemoglobinopathies,50898
Drell-Yan,50898
Viwandani,50898
elegans,50898
spectrophotometry,50898
Bone age,50898
dynamic range,50898
bpm,50898
Tbx2,50898
L-theanine,50898
CABG,50898
deoxyhaemoglobin,50898
humoral immune response,50898
Caustics,50898
C4BP,50898
WBC,50898
Pigment,50898
Intraclass correlation,50898
preterm labor,50898
ionization,50898
protein kinase,50898
alcohol dehydrogenase,50898
monodentate,50898
cyclin D1,50898
adverse event,50898
dioxins,50898
measurement error,50898
cytarabine,50898
fluorescent protein,50898
mmHg,50898
magnetic trap,50898
endoscopy,50898
tamoxifen,50898
cervical lymph node,50898
heterostructure,50898
globulin,50898
D-8,50898
gp120,50898
systolic,50898
Ro15-4513,50898
transcription start site,50898
blood transfusion,50898
absorption spectra,50898
factor XII,50898
interleukin 21,50898
COSPAR,50898
laryngoscopy,50898
IL-8,50898
health system,50898
Radiative transfer,50898
paramagnetic,50898
hydrogen bond,50898
South Korea,50898
sonication,50898
CD31,50898
busulfan,50898
stellar wind,50898
Autoantibodies,50898
sphingosine kinase 1,50898
Granzyme B,50898
Median,50898
attractor,50898
cerium,50898
Stellar evolution,50898
ISC,50898
bridge,50898
QCD,50898
viral hepatitis,50898
cell cycle,50898
angiotensin converting enzyme,50898
epileptogenesis,50898
The scientists,50898
U1,50898
silencer,50898
obliquity,50898
complementary DNA,50898
autograft,50898
co-expression,50898
3' untranslated region,50898
sigmoidal,50898
iodination,50898
Poisson regression,50898
KT,50898
MECP2,50898
TLR4,50898
MDCT,50898
toxaphene,50898
respiratory rate,50898
CBS,50898
renal artery,50898
Photon,50898
BFL,50898
slice preparation,50898
injector,50898
hearth,50898
protein kinase A (PKA),50898
sulfate,50898
bacteriochlorophylls,50898
ADCC,50898
immunosuppression,50898
psychiatry,50898
paddle-wheel,50898
Symptom,50898
patch test,50898
autoionization,50898
oxygenator,50898
intestinal metaplasia,50898
supratentorial,50898
immunophenotype,50898
EBM,50898
chlorophyll,50898
intent-to-treat,50898
Wiley-Liss,50898
dumbbell,50898
SCImago,50898
FISH,50898
dispersion,50898
Dabieshan,50898
mood disorder,50898
saliva,50898
BDE,50898
centrosymmetric,50898
variance component,50898
STL,50898
interneurons,50898
PXN,50898
fractional shortening,50898
microtubules,50898
somatic cell,50898
LOD,50898
MBL2,50898
chondrocyte,50898
NF-kappa B,50898
anxiety disorders,50898
burqa,50898
ultrafiltration,50898
VCD,50898
Lorentzian,50898
phenomenological,50898
Kretzoi,50898
troponin T,50898
asylum,50898
bandwidth,50898
natural gas,50898
Bocholtz,50898
corona,50898
fucosylation,50898
P. falciparum,50898
osteocyte,50898
bolus,50898
cognitive psychology,50898
formazan,50898
operational definition,50898
tt,50898
balloon,50898
LMNA,50898
aniline,50898
branching fraction,50898
linguistics,50898
criminal justice,50898
Slavic,50898
ecology,50898
MZ,50898
teratogenicity,50898
IELs,50898
gradient,50898
asystole,50898
visual analog scale,50898
clopidogrel,50898
viral load,50898
Sm1,50898
cortisol,50898
toxicant,50898
meningitis,50898
ghrelin,50898
TDM,50898
spasm,50898
MPS,50898
dissolved organic matter,50898
Rhodococcus,50898
MP2,50898
T-cell,50898
benzoyl,50898
polyvinyl siloxane,50898
isotopic ratio,50898
quadrupole moment,50898
cytochrome P450 2D6,50898
Arabidopsis thaliana,50898
heritage,50898
PCI,50898
GPa,50898
sciatica,50898
nitrogen metabolism,50898
anaerobic,50898
aperture,50898
28S,50898
cured,50898
mutant,50898
partial defence,50898
VAT,50898
RUNX3,50898
SN,50898
magnetism,50898
anastomoses,50898
flow velocity,50898
CoA,50898
estradiol,50898
manometry,50898
XMM,50898
alloantibody,50898
hepatoma,50898
Acari,50898
NP,50898
Cloning,50898
fluconazole,50898
ticlopidine,50898
clotting factor,50898
LCAT,50898
brainstem,50898
dca,50898
cisternae,50898
porcine,50898
homolysis,50898
S5,50898
VNTR,50898
probabilistic analysis,50898
Pb,50898
radiography,50898
Sequence analysis,50898
glomerular filtration rate,50898
facies,50898
DUOX1,50898
chemical shift,50898
dithionite,50898
bone scan,50898
HER2,50898
arterial pressure,50898
planetesimals,50898
TSP-1,50898
hydride,50898
CAD,50898
focus group,50898
respiratory failure,50898
acclimatization,50898
achalasia,50898
indicative,50898
OpenBUGS,50898
supine,50898
infarct,50898
radioimmunoassay,50898
Gy,50898
PTU,50898
acetylene,50898
AMN,50898
Caucasian,50898
EMG,50898
dissociation constant,50898
dermatologist,50898
gluteus maximus,50898
trisomy,50898
SOX,50898
grand narrative,50898
heel,50898
EE,50898
Rakhine State,50898
SAE,50898
geospatial,50898
radical anion,50898
IgM,50898
AVL,50898
autotrophic,50898
allochtoon,50898
birefringence,50898
splice-site mutations,50898
nonet,50898
S54,50898
Korea,50898
G8,50898
PCSK9,50898
Cytochrome Oxidase I,50898
stroke recovery,50898
Th2,50898
CXCR4,50898
Raw,50898
Si II,50898
barley,50898
Quaternary,50898
linear combination,50898
circle,50898
THC,50898
Er1,50898
Orthodox,50898
age 12,50898
X chromosome,50898
Placebo,50898
echocardiography,50898
weathering,50898
brain metastases,50898
CD3,50898
clutch,50898
prokaryotic,50898
SEC,50898
Guira guira,50898
bioimpedance,50898
NH4Cl,50898
homologue,50898
diffuse large B-cell lymphoma,50898
electric field gradient,50898
laparotomy,50898
sleep hygiene,50898
aromatic ring,50898
angiographic,50898
mucin,50898
alkaline phosphatase,50898
virion,50898
CD80,50898
supersymmetric,50898
leg press,50898
zalcitabine,50898
pus,50898
slow wind,50898
AIDS,50898
EGA,50898
phosphorylated,50898
properdin deficiency,50898
Delta Gamma,50898
protease,50898
Lauren,50898
Denmark,50898
propeptide,50898
Noto,50898
esophagus,50898
NFAT,50898
membrane fusion,50898
Sorex,50898
stoichiometric,50898
CASSCF,50898
orthorhombic,50898
Virgo cluster,50898
Cytometry,50898
lopinavir,50898
cognitive style,50898
autosomal,50898
PDGF,50898
cadaver,50898
copepod,50898
T helper,50898
PWS,50898
helicity,50898
The peripheral,50898
Abdominal examination,50898
boceprevir,50898
fibrosis,50898
ADA,50898
mulatta,50898
suppressor,50898
inhibitor protein,50898
single center,50898
combinatorial,50898
plateau,50898
angiogenic proteins,50898
lemma,50898
artemisinin,50898
Go,50898
This child,50898
Xe,50898
C. difficile,50898
gp41,50898
germline,50898
Osp,50898
C-terminus,50898
myoclonic,50898
entropy function,50898
sufentanil,50898
cytology,50898
NGF,50898
oleate,50898
local symmetry,50898
CID,50898
CK-MB,50898
age 13,50898
Bcl-2 inhibitor,50898
A1,50898
posterior pole,50898
absolute uncertainty,50898
Southern Hemisphere,50898
prothrombin,50898
E4,50898
vaginal bleeding,50898
immunohistochemistry,50898
developmental dyslexia,50898
ipsilateral,50898
saccade,50898
VOI,50898
Univariate analysis,50898
equilibrium potential,50898
scanning electron microscopy (SEM),50898
primary productivity,50898
pixel,50898
discretization,50898
MTSL,50898
secondary care,50898
hepatitis B,50898
generalized linear model,50898
vagueness,50898
polynomial regression,50898
hydrosilylation,50898
Raffi,50898
T3,50898
VC,50898
PDT,50898
State-Trait Anxiety Inventory,50898
Discharge,50898
biopsy,50898
Africa,50898
complementarity determining region,50898
trachea,50898
QKI,50898
vasa vasorum,50898
sex ratio,50898
diastolic blood pressure,50898
Markov chain Monte Carlo,50898
dual-energy x-ray absorptiometry,50898
Asberg,50898
doubles,50898
minute ventilation,50898
aprotinin,50898
ANOVA,50898
flexion,50898
LOFAR,50898
Bowen ratio,50898
M1,50898
azoospermia,50898
amyloid-beta,50898
quartile,50898
thyroglobulin,50898
basicity,50898
percutaneous,50898
penicillin,50898
These children,50898
Basel,50898
Wesley Salmon,50898
HID,50898
dosimetry,50898
phenotypically,50898
short time,50898
child development,50898
retrograde,50898
tDCS,50898
The Cancer Genome Atlas,50898
regression analysis,50898
Palaeozoic,50898
thoracic,50898
photoelectron,50898
nemaline myopathy,50898
United States,50898
adduct,50898
microplate,50898
parasympathetic,50898
pharmacokinetic,50898
migratory bird,50898
vignette,50898
vapour-liquid equilibrium,50898
vertical bar,50898
assisted suicide,50898
OCD,50898
mirror neuron,50898
PK,50898
specific phobia,50898
slurry,50898
support vector machine,50898
thermophilic,50898
erythrocytes,50898
CCR5,50898
7-dehydrocholesterol reductase,50898
spice,50898
PTH,50898
Massachusetts,50898
proteinuria,50898
metallicity,50898
Rwanda,50898
enzyme-linked immunosorbent assay,50898
Antonius,50898
nimesulide,50898
compact star,50898
reference group,50898
magnocellular,50898
atomic-force microscopy,50898
DHICA,50898
ASA,50898
NLRP3,50898
goniometer,50898
parietal lobe,50898
succinate,50898
Sgr A*,50898
interquartile range,50898
Phe,50898
DL,50898
potassium,50898
root-mean-square,50898
redshift,50898
crossover study,50898
umbilical vein,50898
cytoskeleton,50898
anisotropic,50898
Laplace,50898
M2,50898
fragmentation function,50898
sexual inhibition,50898
zirconia,50898
synaptic membranes,50898
coronary heart disease (CHD),50898
growth hormone,50898
blood viscosity,50898
HAART,50898
cardiomyocytes,50898
Rivastigmine,50898
incremental cost-effectiveness ratio,50898
pulmonary tuberculosis,50898
Tauri,50898
total peripheral resistance,50898
biofeedback,50898
tendon,50898
oxime,50898
DC,50898
reification,50898
clay,50898
plant community,50898
columella,50898
white blood cell,50898
roundworm,50898
totally disconnected,50898
South Limburg,50898
Insulin,50898
insp,50898
Itraconazole,50898
carbon cycling,50898
informs,50898
reperfusion,50898
hirsutism,50898
HIBCH,50898
dykes,50898
ECO,50898
childhood cancer,50898
C-max,50898
subspecies,50898
phenoxide,50898
Hemostatic,50898
neuroticism,50898
DUX,50898
amygdala,50898
Anti-Christ,50898
XENON100,50898
bacteremia,50898
Proteus,50898
DYT1,50898
evapotranspiration,50898
leukocyte adhesion deficiency,50898
Lusztig,50898
expression arrays,50898
Neisseria,50898
peritonitis,50898
bubble,50898
cellular immunity,50898
Esophageal Cancer,50898
power spectrum,50898
DM,50898
2AR,50898
3 times,50898
food-web,50898
trough levels,50898
underproduction,50898
reserve,50898
kernel,50898
dentine,50898
ROC,50898
steady-state concentration,50898
ADL,50898
Zea mays,50898
glioma,50898
Northern,50898
blood pressures,50898
activation products,50898
Extraversion,50898
urine,50898
density functional theory,50898
FAD,50898
impedance,50898
SOD1,50898
oncologist,50898
K. pneumoniae,50898
capitalism,50898
organizational culture,50898
The animals,50898
fluorodeoxyglucose,50898
pemetrexed,50898
Ellesmere Island,50898
TERT,50898
basal ganglia,50898
myocardial ischemia,50898
dedifferentiation,50898
Cygnus X-1,50898
pentose,50898
forest dynamics,50898
inclination,50898
proton pump,50898
xerostomia,50898
plankton,50898
integrin,50898
red blood cell,50898
HapMap,50898
energy balance,50898
O2,50898
cold food,50898
torpor,50898
library,50898
semilocal,50898
GM-CSF,50898
contact inhibition,50898
Boltzmann equation,50898
polyamine oxidase,50898
anhedonia,50898
TAS-102,50898
DSB,50898
LIPC,50898
5-FU,50898
NGC 4993,50898
VEGFR,50898
type II error,50898
SHH,50898
response element,50898
aquaculture,50898
bacterioplankton,50898
thymus,50898
T lymphocytes,50898
conjecture,50898
EAO,50898
hyperactivity,50898
electroencephalogram,50898
amide,50898
hydrogenolysis,50898
Agreeableness,50898
neuropeptide,50898
HLA type,50898
bilirubin,50898
adaptation.,50898
enteral,50898
naltrexone,50898
Social Security,50898
binder,50898
TREM,50898
epitizide,50898
continuous glucose monitor,50898
desensitization,50898
Class 11,50898
IL10,50898
Gaussian,50898
diphosphine,50898
History Compass,50898
proenzyme,50898
water table,50898
sulfamethoxazole,50898
rms,50898
inotropic agent,50898
alizarin,50898
cross-validation,50898
Mozambique,50898
kidney transplant,50898
inertia,50898
ligase,50898
metastatic,50898
PUBMED,50898
DNA sequence,50898
root-knot nematodes,50898
GTXC,50898
EMGs,50898
homozygous,50898
BitTorrent,50898
GARCH,50898
cardiac valves,50898
intra-rater reliability,50898
nephrectomy,50898
THF,50898
haplotype,50898
calcification,50898
uridine,50898
Leptospira,50898
Pinus,50898
coccolithophore,50898
cannula,50898
relic,50898
DLS,50898
ppm,50898
quarkonium,50898
Cxcr4,50898
autistic,50898
Multivariate analysis,50898
ABCC4,50898
midazolam,50898
death domain,50898
phenylene,50898
saturated fat,50898
classmates,50898
restriction endonuclease,50898
TAFI,50898
rCBF,50898
calcein,50898
synaptic transmission,50898
multivariate statistics,50898
IF2,50898
Schwarzschild radii,50898
Constitution,50898
AVM,50898
peritoneum,50898
TNF-alpha,50898
pulse wave,50898
oximetry,50898
N-15,50898
maquiladora,50898
TCR,50898
Higgsino,50898
Myelin,50898
Borneo,50898
nature reserve,50898
ascending aorta,50898
Xanthine,50898
cytotoxic T-cell,50898
London,50898
homozygosity,50898
LINEAR,50898
RSD,50898
Kaplan-Meier,50898
tetracyclic,50898
unfair game,50898
EQ-5D,50898
experimental psychology,50898
diphtheria,50898
undetectable,50898
pleconaril,50898
CES-D,50898
L-arginine,50898
gram,50898
RAS,50898
Criterion validity,50898
homolytic cleavage,50898
24 weeks,50898
irritant contact dermatitis,50898
fructose 6-phosphate,50898
CD19,50898
tissue Doppler,50898
phospholipids,50898
radial glia,50898
proptosis,50898
900 degrees,50898
radiant exitance,50898
coordination chemistry,50898
instanton,50898
olive oil,50898
BFRs,50898
haematocrit,50898
PDF,50898
"1,10-phenanthroline",50898
red shift,50898
CD95,50898
reverberation,50898
decolonization,50898
Test-retest reliability,50898
ERCC1,50898
CA1,50898
CCL2,50898
interstellar medium,50898
topsoil,50898
tidal energy,50898
dysesthesia,50898
qPCR,50898
benzoate,50898
pomeron,50898
vesicoureteral reflux,50898
differential diagnosis,50898
thorax,50898
FOXO1,50898
GR-1,50898
SODA,50898
self-management,50898
scanning electron microscopy,50898
acetylcholine,50898
oligotrophic,50898
ISI,50898
Delta N,50898
CCD,50898
colocalization,50898
Mutation,50898
GzmA,50898
angioplasty,50898
current density,50898
El Nino-Southern Oscillation,50898
steroid,50898
C57BL/6,50898
Australia,50898
L. serriola,50898
single-nucleotide polymorphisms,50898
lattice parameter,50898
beta-blocker,50898
non-Gaussianity,50898
Noxa,50898
IRR,50898
radiocarbon dated,50898
TLR2,50898
Lilienthal,50898
hearing aids,50898
amorphous ice,50898
phospholipid,50898
hexabromocyclododecane,50898
nickel sulphate,50898
audit,50898
photoevaporation,50898
echo times,50898
nitrite,50898
ADDA,50898
zebrafish,50898
descriptive statistics,50898
LDL-C,50898
CT scan,50898
E7,50898
phagolysosomes,50898
brain tumour,50898
disjoint set,50898
SSRI,50898
Co-option,50898
indoleamine,50898
NTM,50898
CD59,50898
Purina,50898
snow,50898
gestational age,50898
6-mercaptopurine,50898
amebocyte,50898
fibroblasts,50898
glycoside hydrolase,50898
IC 2944,50898
pressure gradient,50898
Legionella,50898
DBP,50898
Neolithic,50898
ketamine,50898
SAP,50898
case-control studies,50898
Hoorn,50898
anthelmintic,50898
retroviral,50898
VTA,50898
perturbation theory,50898
pacemaker,50898
icodextrin,50898
recursion,50898
c-fos,50898
PCOS,50898
CD135,50898
sugar,50898
SIP,50898
bone metabolism,50898
diffusion coefficient,50898
palynological,50898
cannabinoid,50898
recombinant protein,50898
MDA,50898
Milky Way,50898
ribavirin,50898
gram-positive bacteria,50898
Schleicher,50898
telephone counseling,50898
euthanised,50898
Wundt,50898
electron scattering,50898
Placenta,50898
BRCA2,50898
unstable fixed point,50898
5-HT2,50898
diarrhoea,50898
Mediterranean Sea,50898
Hanoi,50898
progesterone,50898
comorbid,50898
mariculture,50898
Doppler ultrasound,50898
clarithromycin,50898
IgA,50898
sinus,50898
Montpellier,50898
reflectance,50898
SLC6A3,50898
diterpenes,50898
carbohydrate,50898
allochthonous,50898
thymidine,50898
Intimacy,50898
free surface,50898
worldline,50898
masturbation,50898
gestation,50898
ABO blood groups,50898
matrix metalloproteinases,50898
factor Xa,50898
Congress,50898
glycolytic,50898
status quaestionis,50898
endothelium,50898
Herniated discs,50898
adipocyte,50898
accessibility relation,50898
TiO2,50898
Ulcerative Colitis,50898
Italy,50898
SUSY,50898
ECL,50898
rhabdoid tumor,50898
TIPS,50898
orang-utan,50898
vaccination,50898
Sparc T4,50898
outer membrane,50898
melancholia,50898
Pancreatic fistula,50898
edema,50898
optical coherence tomography,50898
zygonema,50898
PQQ,50898
climate model,50898
perfusion,50898
delirium,50898
substance abuse,50898
cereal,50898
flow cytometric,50898
ESR,50898
value-at-risk,50898
cataclysmic variable,50898
invariant mass,50898
phthalate,50898
phylogenetic,50898
minus-strand,50898
PLX,50898
T-bet,50898
antepartum,50898
PLA,50898
ACL reconstruction,50898
Kyrgyzstan,50898
thrombi,50898
spermidine,50898
UCK,50898
parkinsonism,50898
bone metastases,50898
optical rotation,50898
XRD,50898
wakefulness,50898
Co-immunoprecipitation,50898
petrology,50898
The combination,50898
Morris water maze,50898
Conditional logistic regression,50898
JunB,50898
phytohaemagglutinin,50898
recidivism,50898
atria,50898
moieties,50898
Transsexual,50898
effective mass,50898
rituximab,50898
BMT,50898
boron,50898
statist,50898
contextual fear conditioning,50898
hyperparameter,50898
fluorescent dye,50898
cosmic abundance,50898
likelihood function,50898
DAR,50898
L-dopa,50898
LLD,50898
light microscope,50898
Ionisation,50898
resin,50898
cadmium,50898
neutrophil,50898
CD39,50898
voice production,50898
Time,50898
divalent,50898
statins,50898
Volatiles,50898
Collatz,50898
oesophagitis,50898
intracerebral haemorrhage,50898
phosphorus,50898
delta-like 1,50898
DRM,50898
antibacterial,50898
alga,50898
scalar field,50898
La Calamine,50898
ARD,50898
rodent,50898
contralateral,50898
myoepithelial,50898
tumorigenesis,50898
proctocolectomy,50898
iron oxide,50898
Low Frequency Array,50898
EGFR,50898
Northern blot,50898
lymphovascular invasion,50898
cosmological time,50898
contraindication,50898
frequency comb,50898
vimentin,50898
microrheology,50898
prohormone,50898
liquid chromatography-mass spectrometry,50898
non-excludable,50898
kinetic chain length,50898
leavening,50898
paxillin,50898
rickets,50898
Jude,50898
ECC,50898
dielectric,50898
barometric pressure,50898
emotion recognition,50898
Scandinavia,50898
17 days,50898
gastrostomy,50898
flumazenil,50898
siderite,50898
minimal residual disease,50898
epitopes,50898
rms amplitudes,50898
R5,50898
cigarette smoking,50898
neuron,50898
Audiometry,50898
genome-wide association studies,50898
knockout mice,50898
terrace,50898
half-life,50898
The breakthrough,50898
claudication,50898
artemether,50898
talus,50898
extrastriatal,50898
sociology,50898
L. acidophilus,50898
image analysis,50898
low-mass X-ray binaries,50898
hepcidin,50898
LVEF,50898
NOS,50898
cement,50898
isoleucine,50898
peroxisomal targeting signal,50898
recoil,50898
alternative assets,50898
CHF,50898
herbicide,50898
sulfur mustard,50898
osmolality,50898
executive function,50898
chemokine,50898
RNAi,50898
folate,50898
transferrin,50898
SRC,50898
neglected tropical diseases,50898
WAI,50898
FtsZ,50898
EIF2B5,50898
low-pass filter,50898
SIS,50898
Ki-67,50898
neovascularization,50898
power-law,50898
HP,50898
Sexual stimulation,50898
ACTH,50898
lumen,50898
rms amplitude,50898
microstructure,50898
immunocompromised,50898
ejecta,50898
voltage clamp,50898
maximal concentration,50898
grip strength,50898
RP,50898
spectral slope,50898
electrical conductivity,50898
diabetic cardiomyopathy,50898
grassland,50898
Bone scintigraphy,50898
globin,50898
Arginine,50898
spondylosis,50898
radiative transfer,50898
asphyxia,50898
lipoxygenase,50898
gyri,50898
vaginismus,50898
PAI-1,50898
beer,50898
Achmea,50898
complementiser,50898
gonadotropins,50898
general anesthesia,50898
meridional,50898
gene-environment interaction,50898
MLC1,50898
B-cell lymphoma,50898
gel electrophoresis,50898
mtDNA,50898
lexical decision task,50898
alpha-amanitin,50898
enzyme inhibition,50898
phosphatase,50898
genetic linkage,50898
hydrogels,50898
lysimeter,50898
isobar,50898
chromosome 12,50898
carbonyl,50898
neuropeptide FF,50898
MANOVA,50898
acute toxicity,50898
37 days,50898
IDC,50898
oligo,50898
HPA axis,50898
Caco-2,50898
peptide synthesis,50898
clonidine,50898
UNU,50898
CF,50898
Mayotte,50898
motor areas,50898
CDH1,50898
Angiography,50898
circulatory support,50898
interleukin-1 alpha,50898
shingles,50898
empirical treatment,50898
tracheostoma,50898
ranitidine,50898
K-means clustering,50898
ALS,50898
Jurassic,50898
alteplase,50898
ABCD1,50898
euthyroid,50898
basis set,50898
NaHCO3,50898
danazol,50898
correlation coefficient,50898
catecholamines,50898
topology,50898
baboon,50898
SRT,50898
reporter,50898
lymph node,50898
ureteral,50898
Piscivorous,50898
hepatectomy,50898
histology,50898
light curve,50898
T4,50898
"Wiley Periodicals, Inc",50898
HLR,50898
zoonotic,50898
radial head,50898
plantar,50898
HUVECs,50898
ejection fraction,50898
brackish,50898
spin glass,50898
Coagulation,50898
Gnostic,50898
carbonylation,50898
radiocarbon,50898
impulsivity,50898
transthyretin,50898
transitivity,50898
microaneurysm,50898
casual sex,50898
fish oil,50898
graph,50898
ICSI,50898
Folate deficiency,50898
SiHa,50898
HSC,50898
microanalysis,50898
spindle,50898
free energy,50898
recreational drug,50898
CD56,50898
nucleoside,50898
elastography,50898
expected shortfall,50898
TRISS,50898
large intestine,50898
GHB,50898
levodopa,50898
Atlantic meridional overturning circulation,50898
vaporizer,50898
time dilation,50898
allele frequencies,50898
Black,50898
SES,50898
femoral,50898
Vacutainer,50898
peroxisomes,50898
HVA,50898
pamidronate,50898
immunoreactivity,50898
Sweden,50898
monomer,50898
intercellular adhesion molecule,50898
osteoclasts,50898
QTL,50898
classifier,50898
active travel,50898
MWT,50898
replica exchange,50898
DNA Chip,50898
factor VII,50898
EA,50898
Haitian Creole,50898
methylation,50898
interstellar ice,50898
agar,50898
spectral analysis,50898
FH,50898
halo,50898
phosphate,50898
Angola,50898
RM,50898
intrinsic permeability,50898
symbiotic,50898
S-wave,50898
ROI,50898
ISIs,50898
Q7,50898
AU,50898
argon,50898
genomic imprinting,50898
The techniques,50898
anhydrous,50898
fixed effects,50898
AR,50898
Arsenic,50898
electroejaculation,50898
Cochrane Library,50898
CD86,50898
point mutation,50898
spasticity,50898
primary isolate,50898
isoform,50898
mass-to-charge ratio,50898
45 days,50898
mesenteric,50898
probit,50898
skewness,50898
Balmer discontinuity,50898
Eigenvector,50898
dermatitis,50898
gauge group,50898
immunology,50898
nicotinic acetylcholine receptor,50898
electron cloud,50898
PPh3,50898
TGF beta,50898
Pinaceae,50898
human resources,50898
MOPITT,50898
Fibroblast,50898
pseudorapidity,50898
viraemia,50898
positive sign,50898
VM,50898
times daily,50898
dynamometer,50898
wk,50898
electron pair,50898
cob,50898
psychiatrist,50898
IL-12,50898
MSH3,50898
noble gas,50898
PCB,50898
pleurodesis,50898
green algae,50898
Cystinosis,50898
Nieuwegein,50898
neurectomy,50898
worst-case complexity,50898
K55,50898
psychotic disorder,50898
delta C,50898
drought,50898
SP,50898
glycine,50898
DFT,50898
GBq,50898
de novo synthesis,50898
H3K27ac,50898
deuterium,50898
chaperone,50898
30 minutes,50898
Vis,50898
enterocyte,50898
IF5,50898
General Hospital,50898
intracranial haemorrhage,50898
e-learning,50898
multivariate regression,50898
arterial hypertension,50898
KAT6B,50898
supersaturated,50898
MINO,50898
lateral ventricle,50898
antistatic coating,50898
immunodeficiency,50898
IFA,50898
antisense,50898
ICOS,50898
average path length,50898
Mindfulness,50898
char,50898
Mutual Information,50898
ethylene,50898
C-terminal,50898
creatine kinase,50898
standard error,50898
reflectivity,50898
beta-adrenergic,50898
ambulatory,50898
infratentorial,50898
National Academy,50898
FWHM,50898
Bioconcentration,50898
sphingolipid,50898
hypercalciuria,50898
cell envelope,50898
pantropical,50898
hydronephrosis,50898
sacrum,50898
charged current,50898
bactericidal,50898
nonsteroidal,50898
social capital,50898
cell membrane,50898
Neural network,50898
Supernatant,50898
anthracyclines,50898
photoacoustic,50898
heart failure,50898
preconditioning,50898
5'-UTR,50898
power-law noise,50898
teen,50898
twin studies,50898
orbifold,50898
alfacalcidol,50898
reduces inflammation,50898
CD34,50898
actigraph,50898
CCR7,50898
supercritical carbon dioxide,50898
transfection,50898
precession,50898
ATM,50898
fractionation,50898
gastritis,50898
olfactory mucosa,50898
transposon,50898
angular momentum,50898
contrast ratio,50898
end-systolic,50898
mays,50898
amoxicillin,50898
chromosome 2,50898
superconducting,50898
Greenland ice sheet,50898
SOAP,50898
bra,50898
regulatory T cell,50898
IL-18,50898
cytosol,50898
probiotic,50898
microfilaments,50898
repolarization,50898
OM,50898
shRNA,50898
case law,50898
UPC,50898
NaCl,50898
monoclinic,50898
gracilis,50898
brightness temperature,50898
H2K,50898
CD4+,50898
MDR TB,50898
aspiration pneumonia,50898
phosphorylcholine,50898
mod,50898
skin infection,50898
liver biopsy,50898
Biopsy,50898
enoxaparin,50898
glial fibrillary acidic protein (GFAP),50898
miltefosine,50898
neuroplasticity,50898
hydrostatic pressure,50898
hemidesmosomal,50898
compact support,50898
S6,50898
neuropsychological assessment,50898
intramuscular,50898
interferon,50898
gluteus medius,50898
UVB,50898
c-Fos,50898
isoforms,50898
lean body mass,50898
z-scores,50898
neurotoxic,50898
deep wound,50898
contrast agent,50898
imidazolidinone,50898
emtricitabine,50898
MTX,50898
OX40L,50898
Linnean Society,50898
Fourier transform infrared spectroscopy,50898
cardiotomy,50898
cerebellar hypoplasia,50898
Eastern Europe,50898
animal model,50898
microfiber,50898
suicide ideation,50898
CRC,50898
upper gastrointestinal bleeding,50898
citation impact,50898
early childhood caries,50898
primary tumor,50898
vastus lateralis,50898
mantle,50898
Lebesgue measure,50898
maximum tolerated dose,50898
Hartbeespoort Dam,50898
cardiologist,50898
Rhipicephalus microplus,50898
bolometric,50898
JAGS,50898
actigraphy,50898
crosslinking,50898
Regression analysis,50898
HLA-DR,50898
Adjuvant,50898
global minimum,50898
unstable angina,50898
SGC,50898
amplicons,50898
natural product,50898
chest X-ray,50898
cryogenic transmission electron microscopy,50898
color-color diagram,50898
Dll1,50898
prescribed medications,50898
polidocanol,50898
sex steroid,50898
endothelial cell,50898
oligosaccharide,50898
"2,4-dinitrochlorobenzene",50898
complementation,50898
gambling,50898
price elasticity,50898
P4,50898
plastic deformation,50898
random assignment,50898
rss,50898
cyanide,50898
CEC,50898
traumatic brain injury,50898
S. pneumoniae,50898
Treg,50898
MST,50898
LDL,50898
hidden sector,50898
RHOA,50898
autoregressive models,50898
spectral weight,50898
hematopoietic,50898
outlier,50898
SS,50898
p63,50898
Terzan 5,50898
SPS,50898
M. indicus,50898
plethysmography,50898
protein biosynthesis,50898
prostate,50898
hygroma,50898
simian immunodeficiency virus,50898
collimated,50898
Malnutrition,50898
PK11195,50898
Wnt pathway,50898
psychosexual development,50898
CD73,50898
dipole trap,50898
summary statistics,50898
multiplex ligation-dependent probe amplification,50898
immunoblot,50898
speculum,50898
ARIA,50898
p-values,50898
entropic,50898
corticospinal,50898
tetracycline,50898
SPIE,50898
geometric phase,50898
colonoscopies,50898
diving,50898
methacholine,50898
ftsZ,50898
insulin pump,50898
Tetranychidae,50898
survival analysis,50898
M. tuberculosis complex,50898
nausea,50898
denitrification,50898
disulfide bond,50898
psychological intervention,50898
phox,50898
mummy,50898
duodenal ulcers,50898
stimulus control,50898
HUVEC,50898
FOXP3,50898
triglycerides,50898
Bethe ansatz,50898
interstellar extinction,50898
ventral striatum,50898
LYG,50898
arteriole,50898
catalase,50898
ablation,50898
dihydrofolate,50898
willow wood,50898
env,50898
vapour pressure,50898
Aromatase,50898
Oscillatoria,50898
individuation,50898
factor VIII,50898
beta diversity,50898
ADH,50898
eukaryotes,50898
rock,50898
between-subjects design,50898
neurite,50898
umbilical artery,50898
malignant neoplasms,50898
Bacterial vaginosis,50898
fluid inclusions,50898
sildenafil,50898
budesonide,50898
mass spectrometry,50898
calamine,50898
TT,50898
cord blood,50898
molecular-weight,50898
ankle-foot orthosis,50898
293T cells,50898
CSTs,50898
DSM-IV,50898
experimental autoimmune encephalomyelitis,50898
derivatisation,50898
Inter-rater reliability,50898
Azerbaijan,50898
population pharmacokinetics,50898
Ultra,50898
bacterial infection,50898
spectroscopic binary,50898
urinary tract infection,50898
Korogocho,50898
scree,50898
numerical rating scale,50898
allergic rhinitis,50898
progression-free survival,50898
p16,50898
basal plane,50898
iliac,50898
FIGO,50898
image resolution,50898
Bengal,50898
blood plasma,50898
Palestinians,50898
Russia,50898
MVs,50898
ontogenetic,50898
logarithm,50898
Ebro River,50898
Case-control study,50898
Myoglobin,50898
Haemostasis,50898
prostate specific antigen,50898
neutropenia,50898
chemoattractant,50898
genetic loci,50898
unidentate,50898
jaundice,50898
varenicline,50898
DOC,50898
PSD,50898
lectins,50898
confidentiality,50898
spin current,50898
ice formation,50898
FCC,50898
KIR2DS4,50898
"1,4-dioxane",50898
antimalarial drug,50898
N1,50898
EPCOT,50898
proteinase 3,50898
glucocorticoid receptor,50898
responsivity,50898
IL-5,50898
antioxidant,50898
DNA synthesis,50898
osteoarthritis,50898
cerebrospinal fluid,50898
CD5,50898
repeated measures,50898
inter-rater reliability,50898
buoyancy,50898
principal component analysis,50898
isoproterenol,50898
TGA,50898
MUA,50898
health psychology,50898
ad libitum,50898
mitral,50898
cyclic nucleotide,50898
reproductive success,50898
necrotic,50898
glucose 6-phosphate,50898
butyl,50898
Ser,50898
magnetosphere,50898
Cobalamin,50898
myoclonus,50898
neopentyl,50898
WKY,50898
FED,50898
CYP2D6,50898
hybridisation,50898
Thrips,50898
insect,50898
fluid-attenuated inversion recovery,50898
World Health Organization,50898
thiouracil,50898
YouTube,50898
heptane,50898
contig,50898
planet,50898
plain,50898
Bouwman,50898
General Household Survey,50898
IRT,50898
cluster expansion,50898
free electron laser,50898
Cardiology,50898
chromosome 22,50898
major depressive disorder,50898
RSV,50898
meningococcal conjugate vaccine,50898
brain donors,50898
ATP synthase,50898
Suharto,50898
specific heat,50898
tautomerization,50898
hypoparathyroidism,50898
historiography,50898
antenna,50898
tacit.,50898
total cholesterol,50898
aliquot,50898
absorption spectrometry,50898
tandem repeat,50898
intraventricular haemorrhage,50898
Thrombolysis,50898
TNFAIP3,50898
stable fixed point,50898
F1,50898
C4,50898
BMC,50898
periareolar,50898
Adriatic,50898
RELN,50898
vital signs,50898
Berlese,50898
continentality,50898
spermine,50898
CGM,50898
zanamivir,50898
CARD9,50898
The actual,50898
electrolyte,50898
final diagnosis,50898
ultrasonography,50898
diatoms,50898
polyimide,50898
thyrotropin,50898
I-1,50898
luminescence,50898
Push,50898
lymphocytopenia,50898
tandem mass spectrometry,50898
DUOX2,50898
suckling,50898
Slow,50898
NTR,50898
Jewish,50898
IL-21,50898
wavelength,50898
resonance energy transfer,50898
femoral head,50898
simplex,50898
Miconia,50898
Tbx3,50898
reaction mechanism,50898
next-generation matrix,50898
quantitative trait loci,50898
syndemic,50898
retinochoroiditis,50898
electronic transition,50898
processing modes,50898
Principal component analysis,50898
AMPA,50898
metro station,50898
helminth,50898
apolipoprotein,50898
terbutaline,50898
FEM,50898
glucose transporter,50898
paraquat,50898
Tm3,50898
monozygotic twins,50898
obsessive-compulsive disorder,50898
potential energy,50898
executive functions,50898
branching ratio,50898
tracheostomy,50898
critical point,50898
ESO,50898
CR.,50898
itraconazole,50898
ODI,50898
oscillatory activity,50898
papaverine,50898
PaO2,50898
Toeplitz,50898
anemometer,50898
E6,50898
lagoon,50898
Early Bronze Age,50898
VU University Medical Center,50898
P300,50898
on-shell,50898
regime-switching,50898
depolarizing,50898
HDL cholesterol,50898
plasmapheresis,50898
modulus,50898
microCT,50898
supraspinal,50898
LLU,50898
Chemoprophylaxis,50898
non-monotonic,50898
base excess,50898
C.M.,50898
onlay,50898
cough,50898
IQR,50898
suspended particulate matter,50898
CAMH,50898
IDH1,50898
yohimbine,50898
RU486,50898
pachynema,50898
Aldh5a1,50898
AFC,50898
IGF-1R,50898
angiography,50898
ICD,50898
"SL(2, R)",50898
occupational health,50898
chromogenic,50898
Brazil,50898
post-translational modification,50898
acid-base theory,50898
immunoblotting,50898
kHz,50898
hyperkalaemia,50898
cholinesterase,50898
CDA,50898
oligospermia,50898
PathVisio,50898
psoriasis,50898
active nucleus,50898
TMJ,50898
Mini,50898
cognitive impairment,50898
IVIG,50898
adalimumab,50898
flame structures,50898
thyroxine,50898
reticulocyte,50898
PSA,50898
thymocytes,50898
Vomiting,50898
RAC1,50898
cephalosporin,50898
calculator,50898
gentamicin,50898
ventricles,50898
knee joint,50898
HESS,50898
chlorination,50898
rape,50898
allozyme,50898
size-exclusion chromatography,50898
cyan,50898
C99,50898
particle number,50898
WB.,50898
PMP22,50898
The Current,50898
CPS I,50898
neonatal sepsis,50898
bile salt,50898
IL-1Ra,50898
basilisk,50898
sustainable fishing,50898
cumulative incidence,50898
PAF,50898
main-sequence,50898
organic solvent,50898
orbit,50898
H2,50898
endemic,50898
magnetar,50898
transcriptional regulation,50898
simple shear,50898
insertional mutagenesis,50898
exchange interaction,50898
cis-platinum,50898
Weibel-Palade bodies,50898
CsA,50898
co-dependent,50898
Ontario,50898
lacunae,50898
grammaticalization,50898
speleothems,50898
HSPCs,50898
tensor product,50898
rate ratio,50898
eccentricity,50898
cross-reactivity,50898
EGF,50898
pyramidal neurons,50898
fiber-optic,50898
necroptosis,50898
product rule,50898
sandstone,50898
supramarginal gyrus,50898
superfluid,50898
Rh-,50898
GSTM1,50898
etoposide,50898
allodynia,50898
Doppler imaging,50898
Svalbard,50898
hydrogenation,50898
dye,50898
granulocytes,50898
scale-free,50898
enterotomy,50898
peroxisome,50898
haptic feedback,50898
univariate analysis,50898
blood culture,50898
simulated annealing,50898
oddball task,50898
synuclein,50898
Matlab,50898
postcolonial,50898
temporalis,50898
medial temporal lobe,50898
5.8S,50898
allyl,50898
Haemophilus parainfluenzae,50898
coherent scattering,50898
Delphi,50898
European League Against Rheumatism,50898
Scots pine,50898
Data analysis,50898
motor cortex,50898
Baga,50898
Multiple Sclerosis,50898
repaglinide,50898
delocalization,50898
streptococci,50898
turbidity,50898
metrological,50898
diode,50898
stool sample,50898
"fructose 1,6-bisphosphate",50898
Legionnaires' disease,50898
vasoconstrictor,50898
deprotonation,50898
colluvium,50898
catheter,50898
cosmetics,50898
kPa,50898
tropism,50898
Wellcome Trust,50898
alas,50898
proton gradient,50898
brachyodont,50898
thrombospondin,50898
CD28,50898
linear interpolation,50898
binary system,50898
modal logic,50898
lesbian,50898
Galactic center,50898
trichomes,50898
NOAA,50898
periodic boundary conditions,50898
semidefinite programming,50898
phthalates,50898
paraffin,50898
ATR,50898
Beighton,50898
MWM,50898
postmenopausal,50898
Hounsfield units,50898
Devo,50898
bread,50898
losartan,50898
2-mercaptoethanol,50898
ABCA4,50898
phorbol,50898
temporal lobe,50898
vanadate,50898
learning styles,50898
immune response,50898
medial pterygoid,50898
eigenmode,50898
co-immunoprecipitation,50898
Great Britain,50898
descending aorta,50898
RANKL,50898
zero-age main sequence,50898
O-1,50898
leucoderma,50898
guava,50898
volatiles,50898
Cassia siamea,50898
Kanchenjunga,50898
systems biology,50898
informed consent,50898
cautionary note,50898
STAT5,50898
Liquid nitrogen,50898
Tev,50898
neutralino,50898
lissencephaly,50898
cavity wall,50898
FMR1,50898
TRIBLER,50898
acceptable daily intake,50898
immunocompetence,50898
systems theory,50898
biological agent,50898
brain tumours,50898
bronchoalveolar lavage fluid,50898
cardiopulmonary,50898
DAMA,50898
MOR,50898
cask,50898
dyspnea,50898
adsorb,50898
main-sequence star,50898
RING,50898
SMN,50898
shear flow,50898
orbitofrontal cortex,50898
bird migration,50898
ferrimagnetism,50898
geochemistry,50898
rheostat,50898
Madang,50898
anti-thyroid peroxidase,50898
NICU,50898
aryl hydrocarbon receptor,50898
sister group,50898
cytotoxicity,50898
NPY,50898
carotenoid,50898
STDP,50898
cardiomyocyte,50898
reverse transcriptase inhibitor,50898
degranulation,50898
cysteine,50898
ACT,50898
patch-clamp,50898
cohort studies,50898
nevirapine,50898
hexadimethrine,50898
lactulose,50898
Emphysema,50898
electric field,50898
Raman spectrum,50898
genotyping,50898
USD,50898
stimulant laxative,50898
Autopsy,50898
cloud,50898
plafond,50898
properdin,50898
Ray tracing,50898
L4,50898
border control,50898
chiral perturbation theory,50898
AOR,50898
enterocytes,50898
asynchronous system,50898
nanometer,50898
EC50,50898
biostratigraphic,50898
base pair,50898
DNA repair,50898
kilogram,50898
heterozygous,50898
SOX family,50898
telaprevir,50898
anticonvulsant,50898
CD1a,50898
pruritus,50898
G93A,50898
optic nerve,50898
synovial fluid,50898
rotor,50898
ICER,50898
Mendelian,50898
EMT,50898
intraclass correlation,50898
RING1,50898
HLA-C,50898
Meloidogyne,50898
ischemic heart disease,50898
parvocellular,50898
system architecture,50898
coronoid,50898
The pulse,50898
cell life cycle,50898
life stance,50898
biophysical techniques,50898
color separation,50898
autoreceptors,50898
phase space,50898
skeletal muscle,50898
philtrum,50898
mefloquine,50898
capsid,50898
bamboo rat,50898
DHA,50898
parkinsonian gait,50898
isoelectric point,50898
chemical structure,50898
ethylbenzene,50898
matricellular protein,50898
gluino,50898
Monte-Carlo,50898
bedload,50898
MMA,50898
cervical ganglion,50898
design issues,50898
IL12A,50898
homosexual,50898
FEV1,50898
Infusion,50898
small bowel,50898
coloboma,50898
body fat,50898
parvovirus,50898
embryo,50898
OpenMP,50898
C-8,50898
varus,50898
algae,50898
sphincter,50898
colony,50898
polytope,50898
medical school,50898
AFM,50898
heterodimer,50898
gravitational mass,50898
imidazole,50898
side lobe,50898
ionic strength,50898
seroconversion,50898
low-spin,50898
coffee,50898
seedling,50898
thin film,50898
indo-1,50898
flax,50898
balneological,50898
pulmonary artery,50898
metabolite,50898
proto-oncogenes,50898
IL-2,50898
anorectal disorder,50898
AC,50898
Kuraray,50898
MVI,50898
B12,50898
leg extension,50898
depigmentation,50898
peptidoglycan,50898
nonrelativistic,50898
zygosity,50898
migraine,50898
Zinc,50898
parasitoid wasp,50898
miRNA,50898
CETP,50898
ejaculation,50898
pipeline,50898
sampler,50898
exons,50898
affirmative action,50898
type I errors,50898
veal,50898
perforant pathway,50898
PS,50898
VRC,50898
chromosome 21,50898
LT4,50898
oxidoreductase,50898
FGF21,50898
Blastocystis,50898
biogeographical,50898
Roche lobe,50898
immunogenic,50898
Carboniferous,50898
Echinococcus,50898
swamp,50898
CN cycle,50898
leptoquark,50898
ophthalmology,50898
meristem,50898
Random assignment,50898
tetanus,50898
cell motility,50898
hemiepiphytic,50898
p38,50898
C5A,50898
Eddington,50898
leading order,50898
mosaic,50898
catalysis,50898
hepatocyte,50898
hypersensitive response,50898
M5,50898
evoked potentials,50898
E. coli,50898
pre-eclampsia,50898
NFIL3,50898
cardiac surgery,50898
intron,50898
IL1A,50898
rheological,50898
lava,50898
Sphk1,50898
prostaglandin,50898
i.v.,50898
haemolytic,50898
isocyanate,50898
concurrent validity,50898
jejunum,50898
Cardiac disease,50898
allele frequency,50898
pilot experiment,50898
short-range order,50898
proteolytic,50898
object recognition,50898
Dalley,50898
COX-2,50898
temporal cortex,50898
MEK,50898
feces,50898
Hazard,50898
Citrobacter,50898
Somers' D,50898
gauge field,50898
SV40,50898
Five patients,50898
neoplasia,50898
HLA-DQ2,50898
L. crispatus,50898
Casimir forces,50898
public health service,50898
menses,50898
stereotactic,50898
phycocyanin,50898
grid computing,50898
linkage analysis,50898
transputer,50898
PD-L1,50898
Romance languages,50898
high-performance liquid chromatography,50898
molluscs,50898
genome,50898
plasminogen,50898
Mayo,50898
mobile phase,50898
visual analogue scale,50898
L-selectin,50898
rice,50898
interleukin-8,50898
personality pathology,50898
error correction,50898
brachytherapy,50898
redox,50898
erythema,50898
telemetry,50898
ether,50898
two-torus,50898
IRC,50898
acaricides,50898
rye,50898
Mann-Whitney,50898
primordial black holes,50898
E3 ligase,50898
adenocarcinoma,50898
uterus,50898
varve,50898
polyphenols,50898
Heterogeneity,50898
Silverfish,50898
hyperemia,50898
voxel space,50898
Running economy,50898
multilocus sequence typing,50898
clone,50898
X-ray diffraction analysis,50898
Peritonitis,50898
limbic,50898
potential energy curves,50898
fibrinogen,50898
OPTN,50898
step function,50898
chemotaxis,50898
minimal model,50898
superexchange,50898
acetyltransferase,50898
PTB,50898
Soviet,50898
PGE2,50898
Mauritia,50898
MTA,50898
NRTI,50898
Sequencer,50898
chromatin,50898
neoadjuvant chemotherapy,50898
methamphetamine,50898
liquidity,50898
benzofuran,50898
kallikrein,50898
adrenaline,50898
youth health,50898
Mie theory,50898
CRESST,50898
antiparasitic medication,50898
euthanized,50898
MODIS,50898
Formicidae,50898
viscosity,50898
3A4,50898
neuromechanics,50898
Flexitime,50898
cognitive deficit,50898
glass transition temperature,50898
Luttinger liquid,50898
seminal fluid,50898
LG,50898
miscarriage,50898
X-2,50898
Receiver operating characteristic,50898
ICAM-1,50898
gastrulation,50898
GFAP,50898
angular velocity,50898
IgG2,50898
SCN1A,50898
lunate,50898
electrostatic field,50898
STEMI,50898
sterol carrier protein,50898
citrulline,50898
toxoplasmosis,50898
assisted reproductive technologies,50898
HBV,50898
PALFA,50898
malleolus,50898
apoA-I,50898
ZIF,50898
premature ovarian failure,50898
RDI,50898
hearing loss,50898
Factor V Leiden,50898
body surface area,50898
North America,50898
MGMT,50898
Sports Medicine Australia,50898
The mutations,50898
cerebrovascular,50898
IUI,50898
cervical intraepithelial neoplasia,50898
refractory period,50898
methane emissions,50898
IL-1 alpha,50898
Doppler,50898
lipid bilayer,50898
iberiotoxin,50898
dilepton,50898
carbofuran,50898
structural equation model,50898
Mann-Whitney U,50898
inhibin B,50898
Orbitrap,50898
osteopontin,50898
Confidence Interval,50898
soil conservation,50898
strut,50898
intention-to-treat analysis,50898
BALF,50898
dipole-dipole interactions,50898
perforin,50898
DTaP,50898
future radio,50898
The rankings,50898
TRIM5,50898
methylmercury,50898
aortic root,50898
Bone morphogenetic protein,50898
REM,50898
axotomy,50898
CP symmetry,50898
tactile perception,50898
salvage therapy,50898
TACI,50898
matrix isolation,50898
dendrites,50898
Cyg X-1,50898
frustule,50898
pyridoxine,50898
transvaginal ultrasound,50898
liothyronine,50898
sodium-iodide symporter,50898
myo-inositol,50898
autoimmune pancreatitis,50898
legume,50898
serology,50898
1G,50898
Aeromonas salmonicida,50898
grafting,50898
brachial artery,50898
antisymmetric,50898
granulation tissue,50898
psyllid,50898
university hospital,50898
vomiting,50898
peritoneal cavity,50898
hyperphagia,50898
circumstellar dust,50898
P-selectin,50898
CERs,50898
arginine,50898
calcium carbonate,50898
PD-1,50898
1-hexene,50898
aquifer,50898
SYT1,50898
entropy,50898
fetuin,50898
Mcl-1,50898
magnetic dipole transition,50898
fasciectomy,50898
conduritol,50898
passivated,50898
laser ablation,50898
unfolded protein response,50898
ototoxicity,50898
diffuse alveolar damage,50898
post-traumatic stress,50898
mire,50898
dopaminergic,50898
supranational,50898
sols,50898
RTF,50898
species diversity,50898
Scotland,50898
maternal mortality,50898
liver disease,50898
scalar boson,50898
CD83,50898
global cooling,50898
Wiley-liss,50898
interstellar matter,50898
prion,50898
Asia,50898
chlamydia,50898
pesticide,50898
hypertrichosis,50898
myeloperoxidase,50898
meiosis I,50898
marginal zone,50898
scapula,50898
ROC curve,50898
histopathology,50898
Regulatory B cells,50898
laxatives,50898
rise time,50898
Madagascar,50898
axenic,50898
renal cortex,50898
GFI1,50898
vasodilation,50898
zerovalent,50898
propranolol,50898
hepatotoxicity,50898
African meningitis belt,50898
anhydride,50898
tight junctions,50898
provirus,50898
C-type lectin,50898
inflammatory diseases,50898
modal,50898
thiazolidinedione,50898
Neurophysiology,50898
furosemide,50898
EcoRV,50898
Arabidopsis,50898
cholecystitis,50898
tight junction,50898
food security,50898
Tripos,50898
weakly interacting massive particle,50898
dodecyl,50898
WC,50898
enantiomeric excess,50898
gastric ulcers,50898
CYP2C19,50898
alpha helices,50898
leukocyte count,50898
heterogeneities,50898
photobleaching,50898
gluon,50898
digit span,50898
MMO,50898
intraperitoneal injection,50898
shunting inhibition,50898
respiratory sinus arrhythmia,50898
mitogen,50898
Annual plant,50898
LOX,50898
spermatogonia,50898
proteoglycans,50898
hypothermic,50898
pheromone,50898
venules,50898
bisexual,50898
nicardipine,50898
retroperitoneal,50898
muscle atrophy,50898
constitutive activity,50898
brown trout,50898
seminiferous tubules,50898
Tocopherol,50898
volcanism,50898
genotypic,50898
Malingering,50898
CLE,50898
micromass,50898
prohibitin,50898
orthodontics,50898
docetaxel,50898
air pollution,50898
breast milk,50898
infant formula,50898
PSR J0437-4715,50898
esophagogastroduodenoscopy,50898
labetalol,50898
FosB,50898
UVA,50898
N-linked glycosylation,50898
radiometer,50898
adenoma,50898
fingerprint,50898
Xining,50898
z-score,50898
LDLR,50898
vortices,50898
platinum,50898
greenhouse gas,50898
E56,50898
bismuth,50898
Actilyse,50898
RFXAP,50898
laser diffraction analysis,50898
lumbar spine,50898
endothelin,50898
neointima,50898
cognate,50898
inhibitory control,50898
cranial MRI,50898
small time,50898
greenhouse,50898
bimodal,50898
electrocardiogram,50898
Lepidoptera,50898
DOI,50898
MALDI-TOF,50898
Arrival,50898
abdominal X-ray,50898
neutrophilic,50898
ecotoxicity,50898
CD49a,50898
weighted average,50898
photosystem I,50898
gamete,50898
one-electron reduction,50898
ischaemic heart disease,50898
AIDS dementia complex,50898
Nairobi,50898
locality,50898
LADIS,50898
Neuropsychology,50898
stereotype,50898
aminopeptidase N,50898
immunofluorescence,50898
reflex,50898
microglia,50898
The massive,50898
arsenite,50898
Impella,50898
centroid,50898
LTL,50898
Momordica charantia,50898
computerized axial tomography,50898
UAP,50898
NPC,50898
additive genetic effects,50898
aerosol,50898
immunomodulation,50898
neurodegenerative disease,50898
GTPase,50898
ASP,50898
rotation measures,50898
zwitterion,50898
seropositivity,50898
thermogravimetry,50898
premenopausal,50898
rectum,50898
formants,50898
rhesus monkeys,50898
renal cell cancer,50898
BAR,50898
eclectic psychotherapy,50898
keratinocytes,50898
menopausal,50898
SIV,50898
NMDA,50898
gluteus medius muscle,50898
evoked field,50898
rectus femoris,50898
refractive error,50898
Shire,50898
constipation,50898
edaphic,50898
computed tomography angiography,50898
infrared gas analyzer,50898
horizontal cells,50898
Multiple linear regression,50898
ROM,50898
N5,50898
adoptive transfer,50898
Antarctica,50898
teratogen,50898
mustard family,50898
biological therapy,50898
epididymis,50898
brackish water,50898
IPSA,50898
neurotoxicity,50898
Cardiomyocyte,50898
hippocampal formation,50898
Kindling,50898
agoraphobic,50898
oligonucleotides,50898
slow wave sleep,50898
phagocytosis,50898
metabolomic,50898
sexual health,50898
plant science,50898
patient reported outcomes,50898
penetrating trauma,50898
glutaraldehyde,50898
gender equality,50898
hCG,50898
automated reasoning,50898
glyburide,50898
metamorphic,50898
M. avium,50898
Raman spectroscopy,50898
atrioventricular canal,50898
Very Large Telescope,50898
sialylation,50898
glycan,50898
rational map,50898
Ruelle,50898
soft-sediment deformation,50898
IPSS,50898
Sertoli cells,50898
DCM,50898
dextrose,50898
liposuction,50898
encephalomyelitis,50898
heavy metals,50898
renal veins,50898
star formation,50898
lux,50898
H2 antagonists,50898
DSC,50898
cerebellum,50898
job satisfaction,50898
MeV,50898
PAH,50898
pulsed-field gel electrophoresis,50898
site percolation,50898
Niger-Congo,50898
eplerenone,50898
political Islam,50898
monolayer,50898
coding region,50898
B3LYP,50898
tinzaparin,50898
.007,50898
Berg Balance Scale,50898
UBS,50898
PDE4D,50898
major depressive disorder (MDD),50898
subdominant,50898
internal elastic lamina,50898
neoplasms,50898
18S,50898
transactivation,50898
colony forming unit,50898
flexor,50898
root structure,50898
Trial registration,50898
Whole blood,50898
PET scan,50898
picene,50898
FLAIR,50898
sagittal,50898
siRNA,50898
nifedipine,50898
VDR,50898
ISO,50898
ECE,50898
El Nino,50898
HPV test,50898
single electron transfer,50898
methylphenidate,50898
RASopathies,50898
nicotinamide adenine dinucleotide phosphate,50898
AUC,50898
Homozygosity,50898
internal capsule,50898
5-HT1A,50898
reagent,50898
Golgi,50898
ischaemic,50898
Leo,50898
Lifshitz,50898
urinary urgency,50898
lithiasis,50898
limbic system,50898
CXCR2,50898
LIPA,50898
middle cerebral artery,50898
familial trait,50898
Palestinian,50898
hydrocortisone,50898
photosensitizer,50898
chondrocytes,50898
hypokinesia,50898
diesel,50898
Earth,50898
BCR,50898
valence electron,50898
NPT,50898
convolving,50898
anisotropies,50898
brain tumor,50898
gastrointestinal cancer,50898
flower,50898
66 months,50898
alirocumab,50898
Russian Federation,50898
geomorphological,50898
neuropsychological test,50898
electrospray,50898
dwarf spheroidal galaxies,50898
inflaton,50898
valgus,50898
flanker,50898
tidal volume,50898
imiquimod,50898
western blot,50898
synaptic vesicles,50898
gamma-secretase,50898
telomerase reverse transcriptase,50898
SH3,50898
TUBA1A,50898
tumor suppressor,50898
anthracycline,50898
covariance,50898
phosphate-buffered saline,50898
regurgitation,50898
Apterygota,50898
aortic arch,50898
multigroup,50898
Haliclona,50898
Rome,50898
blood donor,50898
portal vein,50898
rosiglitazone,50898
Physical Medicine,50898
ARDs,50898
renal insufficiency,50898
S-phase,50898
Life satisfaction,50898
LPV,50898
Opalescence,50898
tobacco,50898
ionizing radiation,50898
dewetting,50898
heterozygosity,50898
sex allocation,50898
recurrent nova,50898
art history,50898
pollen analysis,50898
lactose,50898
gut microbiota,50898
cognitive load,50898
lexicon,50898
EMD,50898
visible light,50898
titer,50898
Klebsiella pneumoniae,50898
vasodilator,50898
Cariaco Basin,50898
consensus sequence,50898
sin,50898
IL12B,50898
agoraphobia,50898
sublingual,50898
Dissociation,50898
CD7,50898
Parvalbumin,50898
white adipose tissue,50898
Artemis,50898
desmosomal,50898
open reading frame,50898
Wilcoxon rank sum test,50898
salinity,50898
DHFR,50898
Beijing,50898
Former Soviet Union,50898
Intensive care unit,50898
solvent effects,50898
soybean oil,50898
logging,50898
Stroke volume,50898
GSTP1,50898
fibrous cap,50898
glycated hemoglobin,50898
DAPK1,50898
organometallic compound,50898
gelada,50898
milk fat,50898
metaplasia,50898
seropositive,50898
Skye,50898
solubility,50898
PNG,50898
qubits,50898
glia,50898
hydrology,50898
mannose,50898
elution,50898
U(1),50898
EU law,50898
chloroplast,50898
seed dispersal,50898
ezetimibe,50898
atrium,50898
lactate,50898
O-2,50898
vascular endothelial growth factor A,50898
tertiary care,50898
rhyolite,50898
cytochalasin D,50898
Wigner function,50898
Ki67,50898
carbene,50898
Thyroglobulin,50898
Roland,50898
tRNA,50898
species richness,50898
divergent validity,50898
Sambucus,50898
vascular disease,50898
K-edge,50898
agglutination,50898
impulse response,50898
ENETS,50898
therapeutic window,50898
Gadolinium,50898
CTP,50898
propyne,50898
transaminases,50898
sandwich,50898
human serum albumin,50898
absorption edge,50898
CCL5,50898
gay,50898
isoprenaline,50898
Fos,50898
leukemia,50898
thrips,50898
ATP binding cassette,50898
dysthymia,50898
akt,50898
G1 phase,50898
Jesus,50898
column density,50898
inferior parietal cortex,50898
PWV,50898
CRISPR/Cas9,50898
time-series models,50898
Golgi complex,50898
stapler,50898
superconducting order parameter,50898
myelin proteins,50898
hTERT,50898
DPYD,50898
H2S,50898
mTORC1,50898
Russian,50898
metacognitive,50898
dehydroepiandrosterone sulfate,50898
cognitive therapy,50898
bromine,50898
UFL,50898
viscoelastic,50898
NADH,50898
viremia,50898
Lymphocyte,50898
Statistics Netherlands,50898
NOVA,50898
tail flick test,50898
egalitarianism,50898
EPA,50898
ammonium,50898
catalyzes,50898
Prucalopride,50898
synapse,50898
Dominican Republic,50898
Voreen,50898
P5,50898
superoxide,50898
protein S,50898
proton affinity,50898
tension headache,50898
PBMC,50898
MAOA,50898
wild type,50898
field gradients,50898
Sharpness,50898
pike-perch,50898
decision tree,50898
LMS,50898
spectral type,50898
serotonin-norepinephrine reuptake inhibitor,50898
Karnofsky Performance Status,50898
Differential scanning calorimetry,50898
compound heterozygous,50898
nonsense mutation,50898
oligonucleotide,50898
binary decision,50898
thrombus,50898
tunnel boring machine,50898
Elbow,50898
simvastatin,50898
mental rotation,50898
pathologist,50898
computer model,50898
economic evaluation,50898
STED,50898
idiopathic,50898
IAN,50898
place cell,50898
neuroinflammation,50898
statin,50898
plasmin,50898
homodimer,50898
neurovascular bundle,50898
dipole-dipole interaction,50898
cardiac output,50898
extubation,50898
Han-sur-Lesse,50898
TPMT,50898
witch-hunt,50898
GDP,50898
creatine,50898
picornavirus,50898
creatinine,50898
Michael addition,50898
DMSO,50898
multivariate analyses,50898
archipelago,50898
link function,50898
diacylglycerol,50898
haptoglobin,50898
UV-Vis,50898
hypogammaglobulinaemia,50898
postmitotic,50898
symplectic integrator,50898
RBC,50898
pharyngeal,50898
septum,50898
Torun,50898
Angioplasty,50898
social anxiety disorder,50898
hydrops fetalis,50898
estriol,50898
WRC,50898
Y-BOCS,50898
torque,50898
varicella,50898
progesterone receptor,50898
single-nucleotide polymorphism,50898
MPM,50898
CBF,50898
aliphatic,50898
IL1B,50898
subsidence,50898
oligodendrocytes,50898
selenium,50898
ritonavir,50898
cortisol awakening response,50898
low-salt diet,50898
multicollinearity,50898
Philippines,50898
Gpc,50898
GLP-1,50898
bandpass,50898
thermalization,50898
epinephrine,50898
trough,50898
nephelometry,50898
stunting,50898
A5,50898
functional composition,50898
light microscopy,50898
heroin,50898
symmetric product,50898
network analysis,50898
F4,50898
faecal calprotectin,50898
adhesion-GPCRs,50898
Pseudomonas,50898
mole,50898
bridging ligand,50898
FDR,50898
B-ALL,50898
coordination sphere,50898
OFC,50898
macroblocks,50898
decolonisation,50898
Neuroticism,50898
strong induction,50898
WISC,50898
anaemia,50898
glucuronidation,50898
necroptotic,50898
locked nucleic acid,50898
prolactin-releasing peptide,50898
asymptotic distribution,50898
glycoproteins,50898
health protection,50898
human chorionic gonadotrophin,50898
Electron microscopy,50898
monopole,50898
New Zealand,50898
anaphase,50898
chicken pox,50898
bacteraemia,50898
castor bean,50898
optical depth,50898
Blood pressures,50898
faeces,50898
Pamidronate,50898
Glut-1,50898
PH3,50898
glomerulosclerosis,50898
chemiluminescence,50898
TDI,50898
myocyte,50898
Yellow Springs,50898
chromosome 9,50898
gametocyte,50898
H+,50898
basin,50898
gene-environment correlation,50898
antiserum,50898
Fancy,50898
Gilmore,50898
breakpoint,50898
dobutamine,50898
triple quadrupole mass spectrometer,50898
mesolimbic,50898
reperfusion injury,50898
cinnamaldehyde,50898
DBE,50898
ADH2,50898
immunohistochemical staining,50898
erg,50898
stalagmite,50898
heart catheterization,50898
perianal,50898
Esteem,50898
sedoheptulose,50898
proteolysis,50898
DSM-III-R,50898
temocillin,50898
XMM-Newton,50898
abstract machine,50898
norfluoxetine,50898
fixational eye movements,50898
MYBPC3,50898
Sputum,50898
Tubingen,50898
gas hydrates,50898
Lee,50898
EPR spectroscopy,50898
GMAA,50898
ADT,50898
heart defects,50898
optic atrophy,50898
glycans,50898
eosinophils,50898
respiration,50898
ground truth,50898
metronidazole,50898
quinine,50898
"2,2-dimethylbutane",50898
mixed strategies,50898
empirical Bayes method,50898
commissural fiber,50898
Espirito Santo,50898
IAV,50898
array comparative genomic hybridization,50898
Quantitative structure-activity relationship,50898
biradical,50898
Anabasine,50898
mobile device,50898
COS cells,50898
spironolactone,50898
suicide,50898
axion,50898
lactobacilli,50898
NS,50898
hepatocyte nuclear factors,50898
solid tumour,50898
bead,50898
autoimmune diseases,50898
sex chromatin,50898
endoscope,50898
thermochemical,50898
Nicotiana attenuata,50898
quanta,50898
efavirenz,50898
6 Years,50898
intima-media thickness,50898
Bavaria,50898
hypokalaemia,50898
cAVB,50898
PAP,50898
chimeric,50898
type 1 diabetes,50898
C1-INH,50898
IPC,50898
fluorescence-activated cell sorting,50898
airbrush,50898
cetuximab,50898
language family,50898
Thomassin,50898
occupational exposure limit,50898
Sclerotherapy,50898
Sanger sequencing,50898
Empire,50898
dentistry,50898
ERA,50898
frontal cortex,50898
FTIR,50898
modulation transfer function,50898
melioidosis,50898
nephrocalcinosis,50898
formiminoglutamate,50898
Late Bronze Age,50898
SPECT,50898
MVC,50898
Roche Diagnostics,50898
equivalent dose,50898
brx,50898
chemical ligation,50898
wave vector,50898
mannitol,50898
deafness,50898
narrowband,50898
COS,50898
serogroups,50898
natriuretic peptide,50898
ARDS,50898
Liver biopsy,50898
fibrin,50898
Iridoviridae,50898
Yahuarcocha,50898
MIDI,50898
vulvodynia,50898
creatinine clearance,50898
dexmedetomidine,50898
subglacial,50898
extinct,50898
IL2,50898
posterior probability,50898
alemtuzumab,50898
one-way ANOVA,50898
histopathological,50898
energetics,50898
free radical,50898
mattress,50898
aortic valve replacement,50898
perinatal,50898
type IIB,50898
mirror,50898
dissolved organic carbon,50898
goblet,50898
Glasgow Coma Scale,50898
Clinical Oncology,50898
antiretroviral drugs,50898
Pearson correlation coefficient,50898
Personality disorders,50898
stationary phase,50898
DIP,50898
helicase,50898
NFAT1,50898
ethylene glycol,50898
DOUBLE TOP,50898
DFM,50898
Hcn4,50898
Heat stress,50898
neurogenic claudication,50898
hazelnut,50898
messenger RNA,50898
Tmax,50898
Lipid,50898
blast cell,50898
wildtype,50898
aetiological,50898
V4,50898
eQTL,50898
chronic pulmonary disease,50898
Bloodstream,50898
SPF,50898
CDC,50898
3-hydroxyisobutyryl-CoA hydrolase,50898
Altman,50898
open-source software,50898
sawdust,50898
scintigraphy,50898
Rhodopseudomonas palustris,50898
T-ALL,50898
perineural invasion,50898
Elsevier Masson,50898
nuclear medicine,50898
Mannheim,50898
catalytic cycle,50898
soil texture,50898
Ab initio,50898
macromolecular,50898
Galactic plane,50898
nickel sulfate,50898
neuropathological,50898
musicology,50898
Easting,50898
propionate,50898
propidium iodide,50898
laser fusion,50898
B-cells,50898
vermiculite,50898
tethered cord,50898
formoterol,50898
human leukocyte antigen,50898
norbornadiene,50898
ICE,50898
transversion,50898
mindfulness,50898
cave,50898
organelle,50898
autophagy,50898
arterial blood pressure,50898
chameleon,50898
SS433,50898
novelty seeking,50898
determinism,50898
q-PCR,50898
Yebes,50898
systemic bias,50898
circular polarisation,50898
action potential,50898
GWB,50898
LT3,50898
Vascular disease,50898
half-lives,50898
per-protocol analysis,50898
Thames Estuary,50898
detoxification,50898
volcanic eruption,50898
pendrin,50898
acute myeloid leukemia,50898
CosmoGirl!,50898
COM,50898
gauge symmetry,50898
duodenum,50898
cerebral infarct,50898
CD57,50898
phosphodiesterase type 5 inhibitor,50898
dithiolene,50898
Methylation,50898
FACS,50898
microtubule,50898
uranium,50898
RX,50898
Sunflower oil,50898
thioester,50898
Toulon,50898
conidia,50898
perceiving oneself,50898
Trump,50898
medulla oblongata,50898
28S rRNA,50898
synovitis,50898
AH,50898
arterioles,50898
Endothelial dysfunction,50898
immunoelectron microscopy,50898
DNA damage,50898
collapsed lung,50898
PEX14,50898
Gibbs measure,50898
blood coagulation,50898
Suriname,50898
ligament,50898
HIPO,50898
deglaciation,50898
machine perfusion,50898
B lymphocytes,50898
Fourier transform,50898
exchange rate,50898
Wnt,50898
linear approximation,50898
RSA,50898
Hubble,50898
Hymenoptera,50898
EpCAM,50898
cleft palate,50898
pyrosequencing,50898
Remission,50898
polyamine,50898
Polyethylene,50898
tetragonal,50898
hamster,50898
hyperplasia,50898
RXTE,50898
choline,50898
molecular hydrogen,50898
articular cartilage,50898
phosphatidylcholine,50898
Go4it,50898
Fra-1,50898
pulse pressure,50898
desogestrel,50898
permeability,50898
MPa,50898
white rabbits,50898
photochemistry,50898
ileum,50898
hyperventilation,50898
Callyspongia,50898
AM,50898
isomer,50898
detritivorous,50898
extracellular matrix,50898
strong interaction,50898
lysosomes,50898
moment arm,50898
cognitive test,50898
rheumatologist,50898
power law,50898
phenylephrine,50898
MSI,50898
semiology,50898
C1q,50898
work time,50898
discount rate,50898
medulla,50898
COPD,50898
resistivity,50898
H4,50898
reuptake,50898
Xenopus,50898
TALDO,50898
UCP3,50898
neuromuscular disease,50898
self-selection bias,50898
lipid metabolism,50898
Mycobacterium,50898
excitatory synapse,50898
Shorter,50898
juxtapose,50898
statistical power,50898
ZSM-5,50898
purchasing power,50898
FoxP3,50898
Centrality,50898
spinal taps,50898
ARCH models,50898
L. helveticus,50898
seminal vesicles,50898
adenovirus,50898
versican,50898
adipose tissue,50898
hydrochlorothiazide,50898
p21,50898
PDGFD,50898
cycloaddition,50898
filopodium,50898
Wavelet analysis,50898
bone marrow suppression,50898
cardiac arrhythmia,50898
syncope,50898
Gambian,50898
annular velocity,50898
tacrolimus,50898
plantation,50898
steatosis,50898
carcinogenesis,50898
oral glucose tolerance test,50898
hydrogen burning,50898
carboplatin,50898
oropharynx,50898
glycosphingolipid,50898
APOE,50898
atresia,50898
compatible solute,50898
CXCR6,50898
heteroscedasticity,50898
function graph,50898
hedge,50898
hepatic vein,50898
biodegradation,50898
insulin therapy,50898
caudate,50898
ovarian failure,50898
inductively coupled plasma mass spectrometry,50898
CPI,50898
chow group,50898
M-CSF,50898
TFT,50898
cell migration,50898
vector field,50898
Acariformes,50898
bile acid,50898
kinetochores,50898
VEPs,50898
fetal fibronectin,50898
intra-class correlation,50898
"2,2,6,6-tetramethylpiperidine",50898
CD4+ T cells,50898
deazaflavin,50898
SIM,50898
UBQLN2,50898
microcephaly,50898
xanthene,50898
everolimus,50898
myograph,50898
systematic error,50898
Stanley Hall,50898
Lagrangian,50898
Kim,50898
technetium,50898
Predictive validity,50898
maintenance dose,50898
Tg1,50898
alcohol-free beer,50898
GCxGC,50898
plasminogen activator,50898
454 Life Sciences,50898
mass transfer,50898
active galactic nuclei,50898
SBS,50898
structural analysis,50898
Harvard,50898
phosphatidylinositol,50898
cartilage,50898
DSS,50898
Cell damage,50898
lipopolysaccharide,50898
chromosome 1,50898
neostigmine,50898
toroid,50898
codebook,50898
Boehringer Ingelheim,50898
lysosomal enzymes,50898
thermonuclear,50898
NF1,50898
NT-proBNP,50898
optical scan,50898
triangular lattice,50898
colony-forming unit,50898
carbachol,50898
Dominicans,50898
Ad5,50898
ACC,50898
virulence factor,50898
K-m,50898
Global warming,50898
contra legem,50898
X-42,50898
gavage,50898
A9,50898
semen,50898
graviton,50898
lettuce,50898
lymphotoxin alpha,50898
HMG-CoA lyase,50898
linkage map,50898
fallypride,50898
SKALP,50898
anion-exchange chromatography,50898
oral surgery,50898
MHC,50898
great ape,50898
CTP synthase,50898
sodium taurocholate,50898
N-glycosylation,50898
U46619,50898
oddball paradigm,50898
ganglion,50898
multireference configuration interaction,50898
cingulate,50898
fibrinolytic system,50898
nerve conduction studies,50898
expression profiling,50898
bioecological model,50898
anti-angiogenic,50898
intraperitoneal,50898
azathioprine,50898
CD163,50898
hematuria,50898
lean mass,50898
uranyl,50898
toluene,50898
Hau,50898
follicular,50898
lactose permease,50898
frameshift,50898
Shetland,50898
ribosomal rRNA,50898
HD 100546,50898
Euthanasia,50898
efflux pump,50898
small-world,50898
deuterium labeling,50898
Neighbor-joining,50898
Zr,50898
differential evolution,50898
rap music,50898
duloxetine,50898
Rho,50898
STE,50898
Tenofovir,50898
cell adhesion molecule,50898
CCL3,50898
tachyphylaxis,50898
ravel,50898
leukoaraiosis,50898
TH1,50898
CD4 cell count,50898
Stomatitis,50898
atherectomy,50898
HLA-A,50898
foreskin,50898
confocal,50898
Suzaku,50898
glucagon-like peptide 1,50898
cusp catastrophe,50898
enrofloxacin,50898
Tilapiine cichlid,50898
FANCD2,50898
gonadotrophin,50898
cladistic,50898
La Nina,50898
kefir,50898
Amide,50898
debridement,50898
dishabituation,50898
MDA5,50898
The passage,50898
rift,50898
CD44,50898
Monomer,50898
anoscopy,50898
influenza A virus,50898
cirazoline,50898
effective theory,50898
diopters,50898
distribution fitting,50898
myopathy,50898
anal cancer,50898
hexokinase,50898
neuroprotection,50898
p75,50898
cyclophilin A,50898
RECK,50898
Max,50898
kilobase,50898
square planar,50898
subdural,50898
magnetostrictive,50898
Seventy,50898
inverse agonist,50898
CD123,50898
vegetable oil,50898
RIBA,50898
eigenfunction,50898
albendazole,50898
superfamily,50898
unnecessary health care,50898
molar mass,50898
Elastin,50898
vasopressin,50898
toll-like receptors,50898
greatest common divisor,50898
XPD,50898
symmetry breaking,50898
LOD score,50898
N20,50898
Photoshop,50898
central molecular zone,50898
kisspeptin,50898
neural stem cells,50898
Actinomyces,50898
cannabinoids,50898
neutropenic,50898
squat,50898
micelles,50898
cyclic voltammetry,50898
SPHERE,50898
Chornobyl,50898
choriocapillaris,50898
self-categorization theory,50898
methylprednisolone,50898
gravimetry,50898
RAW,50898
mathematics,50898
E60,50898
microcirculation,50898
topical,50898
abciximab,50898
citrate,50898
Canadian,50898
Perfusion,50898
nitrogenase,50898
predisposed,50898
Helmholtz free energy,50898
disinhibition,50898
nasogastric tube,50898
Langmuir,50898
laparoscopic surgery,50898
Braunwald,50898
epidermis,50898
Atomic force microscopy,50898
A-1,50898
synonymous mutation,50898
level structure,50898
RNase P,50898
biosensor,50898
hazel,50898
pressure head,50898
antral follicle count,50898
myosin,50898
MYH7,50898
Protein structure,50898
glutathione S-transferase,50898
photosynthetically active radiation,50898
logistics,50898
antidiabetic,50898
ISS,50898
plaque ruptures,50898
Tyr,50898
thermodynamic equilibrium,50898
CPR,50898
dark-field imaging,50898
LVT,50898
propofol,50898
falcarinol,50898
pneumococci,50898
optical tweezers,50898
Freesurfer,50898
spline,50898
TUBB4,50898
soil organic matter,50898
transducer,50898
Adventdalen,50898
Obese,50898
natural resource,50898
filgrastim,50898
high-power field,50898
quinones,50898
photoperiodic,50898
patient-reported outcome,50898
syphilis,50898
small-world network,50898
coronary bypass,50898
WAT,50898
VO2,50898
Chern-Simons Theory,50898
scattering cross-section,50898
Microarray,50898
Vascular Dementia,50898
CD14,50898
abdominal trauma,50898
pseudoscalar,50898
advection,50898
oxidase,50898
intertidal,50898
visceral fat,50898
cancer registry,50898
solvent models,50898
MUC1,50898
performance status,50898
hemostasis,50898
DHEAS,50898
phosphoprotein,50898
lysis,50898
Stanford,50898
endocrine systems,50898
GABA,50898
endocarditis,50898
Sample entropy,50898
microphthalmia,50898
MW,50898
acylium,50898
interneuron,50898
GILZ,50898
The matrix,50898
MyD88,50898
partial volume,50898
caecum,50898
diminished capacity,50898
stress-strain curve,50898
inoculation,50898
direct action,50898
hemophilia A,50898
Hodge 301,50898
TLR,50898
Esperanto,50898
nucleoside monophosphate,50898
numerical equivalence,50898
Lake Louise,50898
opioid,50898
DNA sequencing,50898
macular edema,50898
osteoid,50898
BI,50898
haematoxylin,50898
hexose,50898
noradrenaline reuptake inhibitor,50898
TAVI,50898
baroreflex,50898
16S,50898
PIN,50898
sarcopenia,50898
DMA,50898
anxiety disorder,50898
repeated measures ANOVA,50898
chromoendoscopy,50898
Arthritis,50898
dipstick,50898
pulmonary hypertension,50898
sewage treatment,50898
azide,50898
echocardiogram,50898
liver tumor,50898
Lp-PLA2,50898
stillbirth,50898
kriging,50898
iodine,50898
oracle,50898
foreland basin,50898
order parameter,50898
Portugal,50898
transglutaminases,50898
deciduous,50898
bone marrow aspiration,50898
open access,50898
triglyceride,50898
bentonite,50898
pyrophosphate,50898
natural killer cells,50898
mis,50898
brain metastasis,50898
sorption,50898
photosystem 1,50898
shear strain,50898
evolutionary radiation,50898
CA3,50898
Bantu language,50898
ASL,50898
growth media,50898
dough,50898
gallinaceous,50898
Protestants,50898
end-diastolic volume,50898
HTR2A,50898
phylogeny,50898
Information science,50898
abscess,50898
whiplash,50898
embolization,50898
Baltic,50898
Cir X-1,50898
spheroid,50898
isoflavone,50898
polypropylene,50898
Babesia,50898
Rhine,50898
countermeasure,50898
S. frugiperda,50898
steel,50898
bisector,50898
silverfish,50898
liver transplant,50898
glimepiride,50898
Weight gain,50898
triceps,50898
immunofluorescence microscopy,50898
osteoblast,50898
red giant branch,50898
SDMA,50898
myelin oligodendrocyte glycoprotein,50898
L-alanine,50898
This condition,50898
coreceptor,50898
time point,50898
source code,50898
tea,50898
vesicle,50898
SCN8A,50898
immunolabeling,50898
Chicago,50898
somnolence,50898
PLA2G5,50898
mentally retarded,50898
telomerase,50898
M. xenopi,50898
electric car,50898
PPAR,50898
Influenza,50898
rubber,50898
CA125,50898
pelvis,50898
centromere,50898
pleiotropy,50898
t.i.d.,50898
Mexican,50898
Western blot,50898
local anesthetic,50898
CD27,50898
Proton,50898
CK5,50898
GITR,50898
workforce planning,50898
Even higher,50898
ST1,50898
cryotherapy,50898
enoximone,50898
TCAD,50898
supersymmetry breaking,50898
PDXs,50898
Cholestasis,50898
germ cell,50898
pull-ups,50898
President,50898
MNT,50898
sunitinib,50898
antifungal,50898
mast cell,50898
Working memory,50898
Paced Auditory Serial Addition Test,50898
sigmoid,50898
reactive intermediate,50898
troposphere,50898
Maximum likelihood,50898
The algorithm,50898
ORF,50898
abacavir,50898
functional MRI,50898
HER-2,50898
5-year survival rate,50898
submandibular,50898
Coriolis force,50898
rheumatoid factor,50898
HLA-DQ8,50898
Osteocyte,50898
C terminus,50898
Gravity,50898
fulminant,50898
SAS,50898
coxsackievirus,50898
msec,50898
The Australian,50898
frequency response,50898
simazine,50898
protostar,50898
nucleus accumbens shell,50898
East Antarctica,50898
developing countries,50898
Nocturia,50898
magnetisation,50898
os trigonum,50898
unpaired electron,50898
apposition,50898
pentacene,50898
developmental delay,50898
GBL,50898
Log-rank test,50898
alphabet,50898
omeprazole,50898
transmission electron microscopy,50898
pyrazinamide,50898
colorectal,50898
CYP1A2,50898
nuclear atypia,50898
molecular clones,50898
nasal cavity,50898
bleach,50898
CDH13,50898
JAK/STAT,50898
multiple root,50898
elastic moduli,50898
intubated,50898
infiltration capacity,50898
cucumber,50898
annexin V,50898
hereditary disease,50898
nosological,50898
Radiotherapy,50898
Uganda,50898
drug discovery,50898
candidate region,50898
parotid gland,50898
peristaltic,50898
late spring,50898
QSAR,50898
Malawi,50898
humus,50898
fluoroscopy,50898
malate dehydrogenase,50898
Mean residence time,50898
transforming growth factor-beta,50898
Bonferroni,50898
HNC,50898
tephra,50898
Acinetobacter,50898
patent,50898
Veillonella parvula,50898
MSN,50898
spider,50898
The omission,50898
mandibles,50898
allylic,50898
Kellgren,50898
integrase,50898
Newton,50898
MDM2,50898
dyslipidaemia,50898
ecstasy,50898
brain-derived neurotrophic factor,50898
L-histidine,50898
gamma-glutamylcysteine,50898
potato,50898
Central Europe,50898
dilution assay,50898
plakin,50898
perfusionist,50898
Kent,50898
Colombian Amazon,50898
pleural effusion,50898
Sodium azide,50898
MDR,50898
POMC,50898
prior probability,50898
partial pressure,50898
anal fissure,50898
participant observation,50898
tibolone,50898
N-myc,50898
cobalt,50898
uterine rupture,50898
4-hydroxycinnamate,50898
Plasmodium,50898
chemosensitivity,50898
hypercalcemia,50898
plectin,50898
ADD,50898
fluorescein,50898
CLIPS,50898
soil fertility,50898
Follicle-stimulating hormone,50898
TRIA,50898
prognathism,50898
NK cell,50898
aerodynamic diameter,50898
C-H activation,50898
montane forest,50898
band bending,50898
imetit,50898
S1P,50898
iso,50898
common variable immunodeficiency,50898
Czech,50898
Christian,50898
prophase I,50898
transgenic,50898
Small Island,50898
reflux,50898
pinocytosis,50898
IGF-1,50898
supernova,50898
intensive care unit,50898
Kenya,50898
VO2 max,50898
italic,50898
Alnus,50898
tumor necrosis factor alpha,50898
transcranial Doppler,50898
Spin,50898
promiscuity,50898
trot,50898
MORF4L1,50898
Salix,50898
one-pot reaction,50898
hydrocarbon,50898
vascular cell adhesion molecule-1,50898
VCAM-1,50898
CYP2C9,50898
lipodystrophy,50898
sedimentation rate,50898
NPFF1,50898
CC BY-NC-ND,50898
Sequelae,50898
tetanic stimulation,50898
Polyp,50898
StO,50898
neap tide,50898
glycerol-3-phosphate,50898
M7,50898
compositionality,50898
Systems Biology Markup Language,50898
organizing pneumonia,50898
Pediatrics,50898
renal failure,50898
electron density,50898
genomics,50898
homologous recombination,50898
alkaline,50898
propagation delay,50898
Berlin,50898
sterol,50898
autochtoon,50898
aphid,50898
SNMP,50898
damping,50898
colloid,50898
lightest supersymmetric particle,50898
crystalloid,50898
androgen,50898
DS5,50898
MN,50898
X-linked dominant,50898
EPOS,50898
cytogenetic,50898
arsenate,50898
Achilles,50898
alfuzosin,50898
STXBP1,50898
West Bank,50898
cat,50898
deferoxamine,50898
MAPK,50898
MUC2,50898
Notch1,50898
SNA,50898
Angiotensin II,50898
BCS,50898
polyhydramnios,50898
abstinence,50898
Ivo,50898
ASDAS,50898
SMAD,50898
secondary RNA structure,50898
Flow cytometric,50898
Principal Component Analysis,50898
lapatinib,50898
microsecond,50898
HLA antigens,50898
systemic therapy,50898
OHI,50898
ALDS,50898
Oxytocin,50898
16S rRNA,50898
universal testing machine,50898
laser scanning,50898
polygenic,50898
WAF1,50898
ABCA1,50898
status epilepticus,50898
conduct disorder,50898
histologic,50898
unimodal,50898
Rheum,50898
rubella,50898
subtalar joint,50898
deacetylases,50898
degree centrality,50898
Amati,50898
glyoxylate,50898
yellow fever,50898
partial remissions,50898
liposomal amphotericin B,50898
COL6A1,50898
specific granules,50898
Uralic,50898
Concanavalin A,50898
stenotic,50898
circulatory system,50898
RIG-I,50898
cerebellar,50898
MAS,50898
Fermi function,50898
karyotype,50898
atom efficiency,50898
seroma,50898
Spector,50898
turbulent flow,50898
subduction,50898
skin biopsy,50898
eclampsia,50898
cholinergic neuron,50898
thyroid peroxidase,50898
osmotic,50898
kinematical,50898
DVR,50898
TWIST2,50898
internal conversion,50898
ERT,50898
autoimmunity,50898
Malta,50898
neurogenesis,50898
viscous,50898
STD,50898
Stokes operator,50898
Factor analysis,50898
TDF,50898
time constant,50898
congenital disorder,50898
Haptoglobin,50898
Phagocytosis,50898
PKS,50898
blood vessel,50898
missense mutation,50898
buffer solutions,50898
stellar density,50898
cloning,50898
Health education,50898
CD154,50898
photochemical,50898
Dopamine,50898
Aquila,50898
V3 loop,50898
saturation diving,50898
galactic latitude,50898
Wales,50898
dication,50898
G-protein coupled receptor,50898
classical limit,50898
partons,50898
atomoxetine,50898
cosmic string,50898
bronchial arteries,50898
oral contraceptive,50898
ACL,50898
cataplexy,50898
dans,50898
verapamil,50898
epoxygenase,50898
Cephalometric analysis,50898
plantar fibromatosis,50898
cerebral malaria,50898
corrosion,50898
larch,50898
lymphokine,50898
microsphere,50898
nucleophilic attack,50898
A13,50898
ligation,50898
Cdk1,50898
range 15,50898
ALT,50898
ectopic,50898
hydroxide,50898
Microangiopathy,50898
semitendinosus,50898
smooth function,50898
urate,50898
Regan,50898
adefovir,50898
rapid diagnostic test,50898
stratosphere,50898
Mendelian randomization,50898
sulphoxide,50898
molar concentration,50898
Caqueta River,50898
poliovirus,50898
mesalamine,50898
Inter,50898
common toxicity criteria,50898
Vpr,50898
embryogenesis,50898
prepotent responses,50898
THM,50898
C--,50898
perineum,50898
isoprostane,50898
scaling limit,50898
muscle spindles,50898
P-value,50898
uvula,50898
cyclohexane,50898
decompression,50898
leukodystrophy,50898
transitive,50898
protein translation,50898
integrating sphere,50898
Forty-four,50898
ethene,50898
clade,50898
MOG,50898
PFGE,50898
minority stress,50898
membranoproliferative glomerulonephritis,50898
tetrabromobisphenol A,50898
biocompatibility,50898
methylene,50898
Klebsiella,50898
glycolytic pathway,50898
bowel movement,50898
risk premium,50898
affective element,50898
neocortex,50898
Pulse repetition frequency,50898
interest rate,50898
M05,50898
complement receptor,50898
Flow cytometry,50898
calorie,50898
Wolf-Rayet star,50898
protease inhibitor,50898
tubular heart,50898
bacterial vaginosis,50898
mass spectrometer,50898
blood urea nitrogen,50898
The source,50898
World War II,50898
extracellular fluid,50898
direct sequence,50898
impactite,50898
acute-phase protein,50898
selection task,50898
RF,50898
Frozen,50898
Blood pressure,50898
slurries,50898
fibromyalgia,50898
balloon angioplasty,50898
diurnal rhythm,50898
IGF2,50898
seaweed,50898
nitrous oxide,50898
Lawrence,50898
Cowden,50898
raltitrexed,50898
molecular evolution,50898
munc18,50898
The age,50898
VEGF-A,50898
fluorine,50898
gray matter,50898
transamination,50898
lactate dehydrogenase,50898
S9,50898
amoxycillin,50898
heterozygotes,50898
chronic obstructive pulmonary disease,50898
trisomies,50898
photoautotrophs,50898
Randall-Sundrum,50898
23 years,50898
FoxO6,50898
octahedral geometry,50898
DPPC,50898
Orbicella,50898
sexual stimulation,50898
dehydrogenation,50898
XIAP,50898
HSIL,50898
AMF,50898
subcutaneous injection,50898
primary cell,50898
NSAID,50898
oxidative stress,50898
cockroach,50898
Creatinine clearance,50898
inhalant,50898
decorin,50898
Digit Span,50898
pseudoword,50898
polysaccharide,50898
5-HT2A,50898
excited-state intramolecular proton transfer,50898
c-theorem,50898
herpesviruses,50898
prophase,50898
erythrocyte aggregation,50898
TIMP3,50898
phospholipases,50898
cardiac ischemia,50898
tumour necrosis factor-alpha,50898
peatland,50898
Hyperventilation,50898
MFI,50898
Dialysis,50898
PFA,50898
M3,50898
communism,50898
set shifting,50898
woven bone,50898
relative risk,50898
pregnancy complications,50898
Three-dimensional (3-D),50898
VOC,50898
red noise,50898
GABAergic,50898
diagnostic imaging,50898
ascites,50898
Lesion,50898
anergic,50898
CD69,50898
hemodialysis,50898
price stability,50898
arbors,50898
deamidation,50898
ERAD,50898
ADX,50898
semimajor axis,50898
glutamate,50898
anthralin,50898
frame shift mutation,50898
ferromagnetic,50898
Asp,50898
HELA,50898
TGF-beta,50898
Schrodinger equation,50898
vanillyl,50898
lipid profile,50898
Viremia,50898
Onsala,50898
singleton,50898
Cx40,50898
antigen-presenting cells,50898
Wolters Kluwer,50898
modified Rankin Scale,50898
heat shock protein,50898
Ciprofloxacin,50898
eosin,50898
SVR12,50898
sum rule,50898
x-ray diffraction,50898
transcription regulator,50898
PACSIN2,50898
IFN gamma,50898
Boisduval,50898
cycle ergometer,50898
Extrapolation,50898
antiplatelet,50898
Virgo,50898
ALDH7A1,50898
antimalarial,50898
ethinyloestradiol,50898
manifold,50898
electron excitation,50898
CHRNA4,50898
Deflation,50898
Vitamin K,50898
lung carcinoma,50898
bilateral synchronization,50898
gall bladder,50898
fluoroquinolones,50898
prodromal,50898
diuretic,50898
protein kinase C,50898
c-kit,50898
ileocaecal valve,50898
Anolis,50898
PKC,50898
flexure,50898
proctitis,50898
axon,50898
HSP70,50898
grange,50898
lod score,50898
west Java,50898
time-of-flight,50898
GEE,50898
mucus,50898
absolute difference,50898
achiral,50898
GroES,50898
reaction rate,50898
HERV-K,50898
"2,3,7,8-tetrachlorodibenzo-p-dioxin",50898
anthocyanin,50898
antihypertensive treatment,50898
Bisulfite sequencing,50898
methicillin,50898
scale factor,50898
plant cell,50898
somatosensory,50898
ultra vires,50898
Fresnel,50898
MRCI,50898
ciclosporin,50898
East Asia,50898
HIV drug resistance,50898
linear model,50898
haloperidol,50898
Ratanakiri,50898
MCL-1,50898
relapsing fever,50898
antiproliferative,50898
dioxin,50898
Cornell,50898
alkylation,50898
peanut allergy,50898
soybean,50898
high-throughput screening,50898
thick disk,50898
diffusion tensor imaging,50898
workflow,50898
molecular clock,50898
graphics accelerator,50898
absorption spectroscopy,50898
Vafa-Witten theorem,50898
larynx,50898
BCG,50898
EPCR,50898
Phosphorus,50898
p73,50898
Scintigraphy,50898
lateral hypothalamic area,50898
Rhone,50898
Moroccan-Dutch,50898
Fluorescence Recovery After Photobleaching (FRAP),50898
tubular necrosis,50898
LIGO,50898
neodymium,50898
Maxwell,50898
geranylgeranyl diphosphate,50898
competitive inhibition,50898
fermions,50898
Toxoplasma,50898
pregnancy rate,50898
sorafenib,50898
SH2,50898
projected rotational velocity,50898
British Association,50898
claustrophobia,50898
antiplasmin,50898
chemostat,50898
mGal,50898
HBO,50898
immunohistochemical,50898
taiga,50898
muscarinic antagonist,50898
plasmid,50898
MOS,50898
interpersonal psychotherapy,50898
GaAs,50898
aglycones,50898
Ranibizumab,50898
quasi-periodic oscillation,50898
Cortisol,50898
micturition,50898
radiogenic heat,50898
tlr4,50898
citrate synthase,50898
indapamide,50898
vascular surgery,50898
atazanavir,50898
site-directed,50898
exocytosis,50898
decidua,50898
Reformasi,50898
PDQ,50898
stroma,50898
zeolitic,50898
United Kingdom,50898
analyte,50898
tetrahedral,50898
trypanosomes,50898
taurine,50898
enterocolitis,50898
immune adjuvant,50898
deep chlorophyll maximum,50898
immunostaining,50898
Microcystis,50898
respiratory chain,50898
biomaterials,50898
knee extensor,50898
IL1RN,50898
fluoride,50898
FIA,50898
OX40,50898
supergiant,50898
oxidative addition,50898
agarose,50898
mechanical efficiency,50898
ceftriaxone,50898
relative entropy,50898
osmolyte,50898
temperature-programmed reduction,50898
ion-neutral complex,50898
scale height,50898
opsonic,50898
pressure ulcer,50898
SM.,50898
covalent bond,50898
selepressin,50898
ANOVAs,50898
intravenous fluids,50898
PARD3,50898
gemfibrozil,50898
HIPPARCOS,50898
mononuclear leukocytes,50898
adnexal mass,50898
radar,50898
Romans,50898
guanidinium,50898
CD11c,50898
flood plain,50898
action potentials,50898
cannabis,50898
presbyopia,50898
metoprolol,50898
tetanus toxin,50898
correlation dimension,50898
DERAA,50898
Biomass,50898
bleeding time,50898
SF-36,50898
porphyrin,50898
radiology,50898
transaminase,50898
MBMC,50898
LMXB,50898
cell culture,50898
parenteral,50898
The monthly,50898
DOM,50898
Nlrp3,50898
Messenger RNA,50898
choanae,50898
lipoproteins,50898
HBA1,50898
Morganella,50898
pleural,50898
cancer immunotherapy,50898
progenitor cell,50898
Meuse,50898
genetic correlation,50898
steric hindrance,50898
LDL cholesterol,50898
Afghanistan,50898
ECM,50898
Histogram,50898
beta-oxidation,50898
PASL,50898
alcohol dependence,50898
chemisorption,50898
beta-carotene,50898
respiratory burst,50898
universal extra dimension,50898
Zygote,50898
Little Ice Age,50898
parton distribution functions,50898
seawater,50898
weighted median,50898
petunia,50898
slight delay,50898
DPA,50898
polyp,50898
EELV,50898
Heligmosomoides polygyrus,50898
ecotype,50898
DAF,50898
protozoa,50898
High Middle Ages,50898
FITC,50898
gravitation field,50898
nanocarriers,50898
HVT,50898
paclitaxel,50898
chloramphenicol acetyltransferase,50898
DTDP,50898
Self-selection bias,50898
positive end-expiratory pressure,50898
Xantphos,50898
sociopsychological,50898
CD40L,50898
diabetes mellitus type 1,50898
cocktail,50898
succinate semialdehyde,50898
protease inhibitors,50898
Heritability,50898
synovial,50898
terminal repeat,50898
polyA,50898
NHC ligand,50898
fossa,50898
The solution,50898
mitomycin-C,50898
deiodinase,50898
HPA-axis,50898
SIENA,50898
Galactic latitude,50898
pharmacodynamics,50898
Aminopeptidase N,50898
Agatston score,50898
Triazine,50898
calc-alkaline,50898
ADP,50898
neurotrophic factor,50898
ferritin,50898
banana,50898
geolocation,50898
echogenicity,50898
DFS,50898
CD62L,50898
manipulative,50898
likelihood ratio,50898
DREAM,50898
pyrilamine,50898
coordination complex,50898
sample matrix,50898
arcuate nucleus,50898
BALB/C,50898
septa,50898
observational studies,50898
Early childhood caries,50898
KONE,50898
corticosteroid-binding globulin,50898
asparaginase,50898
fructose,50898
optical power,50898
cremaster,50898
solid-state,50898
explained variance,50898
ST3,50898
copper centre,50898
48 hours,50898
Ethiopia,50898
oxyanion,50898
vancomycin,50898
iterative closest point,50898
tricuspid,50898
excision repair,50898
diabetic retinopathy,50898
cardiac structure,50898
Heparin,50898
water vapour,50898
FGF,50898
MR spectroscopy,50898
gyrus,50898
monocytosis,50898
Negroid,50898
fear conditioning,50898
B-2,50898
HepG2,50898
H3N2,50898
Paleoceanography,50898
peptic ulcer,50898
regularization,50898
myo-,50898
adaptive immune system,50898
pos,50898
diphosphate,50898
renography,50898
future food,50898
Retrospective cohort study,50898
GPS,50898
antiarrhythmic,50898
horizontal gene transfer,50898
AlGaAs,50898
nulliparous,50898
superposition,50898
adipocytes,50898
fir,50898
Lippincott Williams & Wilkins,50898
hydrogen atom abstraction,50898
Pulmonary hypertension,50898
Ugric languages,50898
DRD4,50898
myoglobin,50898
perfluorooctane sulfonate,50898
acetophenone,50898
health care costs,50898
AOM,50898
carboxylate,50898
thrombectomy,50898
COL4A1,50898
contractility,50898
MHC-1,50898
subadditive,50898
paracellular,50898
BRAF,50898
gravitational wave,50898
Chlamydia pneumoniae,50898
16S rDNA,50898
vitamin A,50898
allergic reaction,50898
Peru,50898
gestational sac,50898
cardioplegia,50898
CCL21,50898
phenol,50898
CLR,50898
3G8,50898
endometrium,50898
immunopathology,50898
Gata4,50898
nitrosative stress,50898
lithosphere,50898
electrocautery,50898
hypopituitarism,50898
karyotyping,50898
oxidative phosphorylation,50898
PICA,50898
psychotic episode,50898
mefruside,50898
CD21,50898
dioxin-like compounds,50898
villous atrophy,50898
retinal detachment,50898
Chalinidae,50898
laminin,50898
subcellular fractionation,50898
BDNF,50898
E1A,50898
FEV,50898
thoracic aorta,50898
heptad repeat,50898
carbon monoxide,50898
antibody fragment,50898
obligate carrier,50898
Capo Passero,50898
betweenness centrality,50898
lysine,50898
CD45,50898
protein interaction network,50898
diarrhea,50898
expectative,50898
direct bandgap,50898
MHC class I,50898
bioassay,50898
spatial frequency,50898
Killing vector,50898
coronary arteries,50898
nitric oxide synthase,50898
glutaminase,50898
SUV,50898
French language,50898
ryanodine,50898
histochemistry,50898
Long bone,50898
Myosin,50898
gynaecologist,50898
BASDAI,50898
immunotherapies,50898
Myrica,50898
dentifrice,50898
cholesteryl ester,50898
GLUT1,50898
ATP1A2,50898
coma,50898
Autophagy,50898
active metabolite,50898
distal pancreatectomy,50898
Gadoversetamide,50898
MEA,50898
Songyang,50898
MreB,50898
MR Spectroscopy,50898
vitronectin,50898
Northern Europe,50898
recycling,50898
gp130,50898
nata,50898
Streptococci,50898
Dextran 70,50898
Hamiltonian,50898
genetic diversity,50898
Dinkel,50898
chironomid,50898
fullerene,50898
alglucerase,50898
In situ hybridization,50898
shellfish,50898
laminar,50898
type IIA,50898
antihypertensive,50898
implicit memory,50898
NH3,50898
IgA nephropathy,50898
MOF,50898
good reduction,50898
coupling reaction,50898
biglycan,50898
anti-CD20,50898
common proper motion,50898
le monde,50898
benthic habitats,50898
M. leprae,50898
dot 3,50898
TPs,50898
LDH,50898
pericarditis,50898
INTEGRAL,50898
speech delay,50898
Trichys,50898
Asn,50898
oral hygiene,50898
supercooled,50898
ClinicalTrials.gov,50898
appendicitis,50898
chiasmata,50898
phonological awareness,50898
point-of-care tests,50898
xenon,50898
DTD,50898
ICA,50898
EGFP,50898
CXCL1,50898
crustose,50898
ionosphere,50898
osteocalcin,50898
photoisomerizable,50898
hypervalent,50898
inverted nipple,50898
rate coefficients,50898
preproteins,50898
scapular,50898
As2O3,50898
fanca,50898
MAI,50898
aortic dissection,50898
body fluid,50898
IL-1ra,50898
Gametocyte,50898
desferrioxamine B,50898
CHL,50898
Bjorken,50898
telomere,50898
Dutch girls,50898
dentin,50898
intravenous immunoglobulin,50898
debulking,50898
bim,50898
IPS,50898
LTR,50898
case mix,50898
electrochemical impedance spectroscopy,50898
microalgae,50898
lamin A,50898
amphetamine,50898
esophagitis,50898
polyarthritis,50898
Gnostics,50898
PFC,50898
GluR2,50898
achromatic,50898
gene set enrichment analysis,50898
lipid rafts,50898
NEO-PI-R,50898
respiratory system,50898
diazotrophs,50898
stavudine,50898
MC4R,50898
square pyramid,50898
GATA-4,50898
cervical radiculopathy,50898
P-wave,50898
EIF2B,50898
def2,50898
collimation,50898
ACR20,50898
off-label,50898
binomial,50898
thiotepa,50898
radial-velocity,50898
Schaus,50898
sudden cardiac death,50898
transplant,50898
Mossbauer spectroscopy,50898
visceral hypersensitivity,50898
np,50898
Weesp,50898
ordinal regression,50898
nebulized,50898
spirochete,50898
lipid II,50898
Hermes,50898
double bond,50898
internal transcribed spacer,50898
RKO,50898
normal saline,50898
technetium-99m,50898
hyperplastic,50898
cyst,50898
reproductive diapause,50898
NTT,50898
bronchodilators,50898
hexamer,50898
inbreeding,50898
hsCRP,50898
afferent,50898
enzyme replacement therapy,50898
Panama,50898
distribution function,50898
CADM1,50898
UES,50898
alkalinity,50898
microinjection,50898
N Engl J Med,50898
IL8,50898
Meson,50898
p57,50898
contact lens,50898
heptamer,50898
Memory clinic,50898
Python,50898
osteoarthritic,50898
dysphoric,50898
brown adipose tissue,50898
Subboreal,50898
USA300,50898
sitosterol,50898
DNA barcoding,50898
suppressor mutation,50898
MUC4,50898
influenza B,50898
anti-citrullinated protein antibody,50898
latanoprost,50898
bioinformatics,50898
Schistosoma,50898
microfluidic,50898
hypoglycaemic,50898
terrible triad,50898
antigenicity,50898
scalar potential,50898
White rabbits,50898
DHCR7,50898
oral thrush,50898
SAG,50898
relative standard deviation,50898
polyethylene glycol,50898
balloon catheter,50898
malignant hypertension,50898
Prohibitin,50898
apoE,50898
paradigm shift,50898
CD72,50898
SLC6A2,50898
convection,50898
fossil fuel,50898
dppe,50898
NSF,50898
microcystins,50898
human cytomegalovirus,50898
West Africa,50898
Type 2 Diabetes,50898
CCL19,50898
Nitrogenase,50898
squamous,50898
NMDA receptor antagonist,50898
formate,50898
ex-situ,50898
QQ,50898
Montreal,50898
euphoria,50898
EMCV,50898
linear function,50898
cystatin,50898
Truncation,50898
valve,50898
intercellular adhesion molecule-1,50898
MB,50898
pallidum,50898
COL6A2,50898
cryostat,50898
major adverse cardiovascular events,50898
gastrocnemius,50898
Mycobacterium marinum,50898
California,50898
Erosion,50898
selection bias,50898
congruence,50898
D-amino acid,50898
anterior pituitary,50898
orthologous,50898
spore,50898
P. vivax,50898
suPAR,50898
Nares Strait,50898
Mexico,50898
thermodynamic entropy,50898
soleus muscle,50898
Liao,50898
pupil dilation,50898
Vitamin B-12,50898
census,50898
moving average,50898
EGF receptor,50898
neurotransmission,50898
oxaliplatin,50898
E-cadherin,50898
hemorrhage,50898
Acute lung injury,50898
MEPs,50898
electrocardiograms,50898
Protein C,50898
systemic vascular resistance,50898
ST,50898
von Willebrand factor,50898
UV-A,50898
South-East Asia,50898
n-hexane,50898
infectious dose,50898
extraversion,50898
exogenous variable,50898
NHE-1,50898
enzyme-linked immunosorbent assay (ELISA),50898
DLL1,50898
TCDD,50898
myocarditis,50898
resistin,50898
confocal microscopy,50898
RNR,50898
S1PR1,50898
ACPA,50898
Megalocytivirus,50898
histatin,50898
rhinal sulcus,50898
premorbid,50898
DCML,50898
Virginia,50898
proton-to-electron mass ratio,50898
PTCH1,50898
inositol phosphate,50898
The strongest,50898
excess infrared emission,50898
aerobic respiration,50898
community-based conservation,50898
homocystinuria,50898
backcross,50898
oligomer,50898
thrombin-activatable fibrinolysis inhibitor,50898
Hepcidin,50898
FX,50898
NCT,50898
cooperativity,50898
D2,50898
oestradiol,50898
orthologs,50898
dorsal root ganglion,50898
Simvastatin,50898
GDH,50898
hyperparathyroidism,50898
calcium signaling,50898
dye laser,50898
chlorine,50898
x10,50898
One-way ANOVA,50898
Losartan,50898
bispecific antibodies,50898
respiratory exchange ratio,50898
thioguanine,50898
trypsin inhibitor,50898
N-II,50898
medical record,50898
acute renal failure,50898
bone metastasis,50898
DNA laddering,50898
hemianopia,50898
chemical affinity,50898
radioallergosorbent test,50898
Sir2,50898
ovaries,50898
epidermal,50898
lysine degradation,50898
TIV,50898
gestation period,50898
SF,50898
omics,50898
ETC,50898
gefitinib,50898
dorsal column,50898
salivary glands,50898
ARI,50898
extrafloral nectar,50898
primary production,50898
D1,50898
common bile duct,50898
covalently bonded,50898
Bethe Ansatz,50898
infrared spectrometer,50898
dehydroepiandrosterone,50898
angiodysplasia,50898
BSA,50898
stromal,50898
coronary angiography,50898
cell-adhesion molecule,50898
SHP,50898
ovarian drilling,50898
Mini-Mental State Examination,50898
Nicotine,50898
hydrophobic interactions,50898
MMP,50898
side chain,50898
halogenated hydrocarbons,50898
Siemens,50898
fibulae,50898
Stern potential,50898
intransitive,50898
spectrin,50898
peripheral blood lymphocyte,50898
(M2),50898
mid-infrared,50898
Variscan,50898
toxicogenomics,50898
2017 European,50898
Staphylococcus epidermidis,50898
adhesion molecules,50898
Pulse Amplitude,50898
MAR,50898
RNA splicing,50898
alexithymia,50898
beta blockers,50898
OPS,50898
computer simulation,50898
salphen,50898
FUT1,50898
pentoxifylline,50898
Cx43,50898
ATXN2,50898
generalized seizure,50898
ferric,50898
critical mass,50898
Rate Ratio,50898
laryngeal cartilages,50898
Cockcroft,50898
MTT assay,50898
Cretaceous,50898
cystinosis,50898
Kuusamo,50898
glans,50898
interleukin-1 beta,50898
Lisfranc,50898
phosphate transporter,50898
LBA,50898
Lipoprotein-associated phospholipase A2,50898
mobile phone,50898
AE2,50898
colostrum,50898
CW,50898
AGO2,50898
PH5,50898
LA,50898
hepatitis C,50898
Paxillin,50898
opsonized,50898
SMOS,50898
Schaffer collateral,50898
beta-lactamase,50898
microbial life,50898
HRS,50898
variational principle,50898
Dientamoeba fragilis,50898
Great Recession,50898
DNA vaccine,50898
spinal stenosis,50898
surfacing,50898
first-order kinetics,50898
palliation,50898
Kupffer cells,50898
metasomatism,50898
picosecond,50898
Case report,50898
Julia set,50898
CDC42BPA,50898
musculoskeletal system,50898
regression coefficient,50898
Cambodia,50898
back-propagating,50898
Spectrophotometry,50898
Vickers,50898
STAT1,50898
ice core,50898
ankle joint,50898
Protein kinase C,50898
breccia,50898
ICAM-2,50898
trigonal bipyramid,50898
granule cells,50898
Munc18,50898
Candida,50898
radiosensitizer,50898
proline,50898
dredge-up,50898
Patch clamp,50898
psychological stress,50898
Abbott Vascular,50898
rRNA,50898
heterosis,50898
Monosomy,50898
Crustacea,50898
Emericellopsis,50898
Groundwater,50898
glucagon,50898
Lipka,50898
passivation,50898
Quercus,50898
Poisson distribution,50898
neurotrophin,50898
oncogenes,50898
heteroplasmy,50898
commissural,50898
g-mode,50898
BPAG2,50898
magnetic resonance image,50898
fluorochrome,50898
fluorimetry,50898
chest x-ray,50898
Lactobacilli,50898
receptor tyrosine kinase,50898
osteoblasts,50898
spallation,50898
myotomy,50898
olefin,50898
PONV,50898
IL-12p40,50898
Low Vitamin D,50898
egalitarian,50898
lymphoproliferative,50898
neopterin,50898
voxel-based morphometry,50898
ORIF,50898
denudation,50898
fractional anisotropy,50898
co-dependency,50898
trimer,50898
Atherurus,50898
hydroformylation,50898
class switching,50898
arthroscopy,50898
microdialysate,50898
copolymer,50898
immunosuppressed,50898
bronchus,50898
genotoxic,50898
celecoxib,50898
azithromycin,50898
therapeutic alliance,50898
Sicily,50898
cytogenetics,50898
chloramphenicol,50898
carbon sink,50898
European Food Safety Authority,50898
gastroduodenal,50898
genetic circuits,50898
paleomagnetic,50898
oxygen tension,50898
E2F1,50898
plagioclase,50898
uniform convergence,50898
CKD,50898
CYP17,50898
biotic factor,50898
retinal hemorrhage,50898
troponin I,50898
Rhodomonas,50898
parasitological,50898
SLOS,50898
E-selectin,50898
transdermal,50898
PFOS,50898
smooth muscle cell,50898
methylpentane,50898
spin multiplicity,50898
Dark Matter,50898
Abcc6,50898
asymmetric dimethylarginine,50898
cholera,50898
PPARG,50898
Amphimedon queenslandica,50898
IOR,50898
spondylolisthesis,50898
mafic,50898
bradyarrhythmia,50898
recombinase,50898
spike trains,50898
charge-transfer,50898
Amazon,50898
quantum entanglement,50898
Latin America,50898
negative trend,50898
retinol binding protein,50898
magnetostratigraphic,50898
substrate reduction therapy,50898
superior temporal gyrus,50898
sleepy,50898
short bowel syndrome,50898
methyl jasmonate,50898
cell-cell interaction,50898
practice theory,50898
Cyg X-3,50898
adenylate cyclase,50898
photoreceptors,50898
FUS,50898
semantic network analysis,50898
P-32,50898
Spasticity,50898
R113,50898
Caribbean,50898
Ricinus communis,50898
F5,50898
Hereafter,50898
fibronectin,50898
SPECT/CT,50898
Hardy-Weinberg equilibrium,50898
GST,50898
amorphous,50898
TXB2,50898
multiparity,50898
celiac axis,50898
Anopheles,50898
glial cells,50898
rotational energy,50898
microsomal,50898
GB,50898
endonuclease,50898
anthropometrics,50898
interventricular,50898
18e,50898
Bone marrow transplantation,50898
phenylethyl alcohol,50898
thapsigargin,50898
small GTPase,50898
NaOH,50898
Oncologist,50898
INDO,50898
putamen,50898
Eocene,50898
hypogonadal,50898
nasopharynx,50898
nanoscale,50898
antiretroviral,50898
MIB1,50898
biotin,50898
trans-equatorial,50898
Central America,50898
beta-caryophyllene,50898
Tukey,50898
chromatin immunoprecipitation,50898
H1N1,50898
T2D,50898
actuator,50898
CHR,50898
5.15,50898
LIS1,50898
COL6A3,50898
maintenance therapies,50898
HSP90,50898
hyperthyroidism,50898
The stronger,50898
capecitabine,50898
rapid automatized naming,50898
hemichannel,50898
SCI rehabilitation,50898
generalized estimating equation,50898
vpr,50898
SLC1A1,50898
tibialis anterior,50898
endoplasmic reticulum,50898
XTE,50898
RNase,50898
"Charlottesville, VA",50898
BAC,50898
upper endoscopy,50898
baroreceptor,50898
TATP,50898
coralline algae,50898
endocytosis,50898
cytological,50898
EMP,50898
X-ray binaries,50898
ECNP,50898
IAST,50898
VY,50898
scavenger receptor,50898
reward system,50898
SIL,50898
goodness-of-fit,50898
stereotypy,50898
X-ray pulsar,50898
Serratia,50898
extinction laws,50898
tritiated,50898
mosquito,50898
SOF,50898
Orangutan,50898
personalized medicine,50898
somatisation,50898
criterion validity,50898
oxygen pulse,50898
autism,50898
decay accelerating factor,50898
concerted evolution,50898
alpha-lactalbumin,50898
urethra,50898
Henoch,50898
reversed-phase liquid chromatography,50898
tetrahydrofuran,50898
gliomas,50898
parietal cortex,50898
cotransport,50898
GWA,50898
monophyletic,50898
recreational drugs,50898
NSAIDs,50898
transcallosal,50898
PMP,50898
impulse,50898
CFR,50898
workers' compensation,50898
Primary cilia,50898
spectrograph,50898
iatrogenic,50898
Cytomegalovirus,50898
PVC,50898
Puma,50898
allergy,50898
terrigenous,50898
gene therapy,50898
root-mean-square deviation,50898
trimethoprim,50898
M-1,50898
epithelial-to-mesenchymal transition,50898
COL4A2,50898
heteronormative,50898
vesicular,50898
sedimentological,50898
hypoxanthine,50898
Silvain,50898
methoxide,50898
folate deficiency,50898
Src,50898
compressed air,50898
molecular mechanics,50898
Chi-squared test,50898
herbivorous,50898
cytopenia,50898
DFI,50898
lavage,50898
steric,50898
summer stratification,50898
Paraxanthine,50898
blood coagulation factors,50898
ameloblasts,50898
ALCAM,50898
matrix metalloproteinase,50898
western flower thrips,50898
psychoanalysis,50898
Diapause,50898
maximal voluntary contraction,50898
colloids,50898
chicken,50898
Methionine,50898
piretanide,50898
C3b,50898
CLI,50898
ionisation,50898
technicolor,50898
GluA2,50898
microbiota,50898
vasopressor,50898
bifurcation parameter,50898
aromatization,50898
VLBI,50898
epidemic model,50898
nocturia,50898
protein kinase C (PKC),50898
black-and-white,50898
therapeutic drug monitoring,50898
Western blotting,50898
nipple,50898
quaternion,50898
cardiovirus,50898
reversal potential,50898
duty cycle,50898
preadolescent,50898
necrotrophic,50898
MBL deficiency,50898
dioxygen,50898
antibiotic prophylaxis,50898
ALA,50898
Balkans,50898
binary toxin,50898
Autoimmune thyroiditis,50898
African American,50898
species group,50898
placenta,50898
parasitid,50898
antigen test,50898
VEGFR2,50898
QC,50898
rivaroxaban,50898
Implicit Association Test,50898
Cox models,50898
7x7,50898
mesothelial cell,50898
erythritol,50898
RRD,50898
lignin,50898
Protease,50898
fancg,50898
Haelen,50898
p38 MAPK,50898
bFGF,50898
Ouabain,50898
coprophilous,50898
quadriplegic,50898
UV-visible spectroscopy,50898
oxazolidinone,50898
congenital hearing loss,50898
hydrogenated,50898
enteral feeding,50898
reaction order,50898
perennial,50898
Gln,50898
phagocytes,50898
Biomed,50898
Th2 cell,50898
Statin,50898
impact ionization,50898
UCR,50898
pi-pi interaction,50898
STING,50898
Erythrocyte deformability,50898
scaphoid fracture,50898
RER,50898
prostatectomy,50898
N-acetylglucosamine,50898
linear mixed models,50898
REACH,50898
angina,50898
Pharmacodynamic,50898
LVAD,50898
fat-free mass,50898
hypercholesterolemia,50898
rectal cancer,50898
dppp,50898
Tertiary care,50898
osteoporosis,50898
inotropic,50898
CM,50898
scattering parameters,50898
Peripheral neuropathy,50898
acetylation,50898
semi-analytic,50898
chronic pain,50898
nHill,50898
Burkholderia,50898
X-rays,50898
endometrial hyperplasia,50898
allogeneic bone marrow transplantation,50898
chemoprophylaxis,50898
oncogenic,50898
TEC,50898
PIK3R4,50898
Fas ligand,50898
corona radiata,50898
hypoplasia,50898
beat frequency,50898
Child Behavior Checklist,50898
haematopoietic,50898
dikes,50898
bilateral ptosis,50898
CN,50898
HeNe laser,50898
zooplankton,50898
urosepsis,50898
bioanalytical,50898
second-line drugs,50898
conservative mutation,50898
hyperglycaemia,50898
PBDE,50898
hemodynamic response,50898
gestational diabetes,50898
Blood viscosity,50898
RTK,50898
pyrimidine,50898
fear-potentiated startle,50898
genome sequencing,50898
sulforhodamine B,50898
apterygote,50898
Lipopolysaccharide,50898
high molecular weight kininogen,50898
DNA fragmentation,50898
doublet,50898
testis,50898
JAK/STAT pathway,50898
MCA,50898
potential evaporation,50898
gingiva,50898
indirect bandgap,50898
LIMS1,50898
hyperintensity,50898
CpG,50898
restriction fragment length polymorphism,50898
polar wander,50898
endophenotype,50898
mtHsp70,50898
tuberculoid leprosy,50898
ABC,50898
MAGI2,50898
synovectomy,50898
excimer,50898
autopsy,50898
ATCC,50898
PST,50898
turbulence,50898
inverted spectrum,50898
temperate,50898
M. bovis,50898
carbapenemase,50898
Delta 2,50898
thrombin inhibitor,50898
intertriginous,50898
Alphaproteobacteria,50898
serotyping,50898
forsterite,50898
gastric mucosa,50898
BATSE,50898
red giant,50898
neurofilament,50898
fluid inclusion,50898
FIO2,50898
isopeptide,50898
sevoflurane,50898
Fluorescence-activated cell sorting,50898
cyano,50898
N-jet,50898
Muscle spindles,50898
inositol monophosphatase,50898
immunoprecipitation,50898
CP-violating,50898
protein dynamics,50898
diclofenac,50898
ASIF,50898
onion,50898
Christianity,50898
crossing-over,50898
Type 1 diabetic,50898
MK-801,50898
aetiology,50898
speciation,50898
memory consolidation,50898
tubular cell,50898
renin-angiotensin-aldosterone system,50898
sessile serrated adenoma,50898
liver transplantation,50898
fluorescence microscope,50898
Univariate,50898
bone fracture,50898
methyl radical,50898
autoantibody,50898
Birth weight,50898
masterplan,50898
polymerization,50898
wsCV,50898
MLL,50898
Heart failure,50898
irritability,50898
HDL-cholesterol,50898
phytoestrogens,50898
ulna,50898
Jackson,50898
Hystricidae,50898
magmatism,50898
critical exponents,50898
silicosis,50898
r-process,50898
exchange energy,50898
risk ratio,50898
familial hemiplegic migraine,50898
feminist,50898
2-oxazolidone,50898
sinus venosus,50898
diagenesis,50898
protein C deficiency,50898
abdominal distension,50898
Postprandial,50898
vasoconstriction,50898
Niphatidae,50898
chromospheric activity,50898
phylogenic,50898
interstitial fluid,50898
O-18,50898
Maximum Likelihood method,50898
premature termination codon,50898
E2F,50898
flaps,50898
alamethicin,50898
matter creation,50898
MFS,50898
Moroccan,50898
dorsal striatum,50898
5G,50898
Histology,50898
Tnf-alpha,50898
motivational interviewing,50898
TINF2,50898
WNT,50898
carbohydrate metabolism,50898
sidelobe,50898
PDGFR,50898
probiotics,50898
gonadotropin-releasing hormone,50898
Cognitive Behavioral Therapy,50898
Monica,50898
CORE,50898
aluminium,50898
D-aspartate,50898
Late Carboniferous,50898
orogenesis,50898
Halimeter,50898
L5,50898
terminal half-life,50898
intraocular pressure,50898
DALY,50898
diapausing,50898
granulocytopenia,50898
positive selection,50898
Spitzer,50898
dyskinesia,50898
fungus,50898
Dent,50898
infrared multiphoton dissociation,50898
Santa Clara,50898
Gene expression,50898
ATP2C1,50898
TP63,50898
peduncles,50898
nucleoside reverse transcriptase inhibitors,50898
7/7,50898
broth,50898
sternotomy,50898
SREs,50898
The prototypes,50898
meropenem,50898
mesocosm,50898
bootstrap,50898
hypoalphalipoproteinemia,50898
dermatan sulfate,50898
NEMA,50898
phyla,50898
phenols,50898
myosin light chain,50898
mesothelial,50898
EGR-1,50898
ELP4,50898
outgroup,50898
basolateral membrane,50898
CD36,50898
posterior approach,50898
boundary layer,50898
sFlt-1,50898
Pulmonary function testing,50898
Neogene,50898
tertile,50898
axiomatisation,50898
CD68,50898
Toeplitz matrices,50898
relaxation time,50898
galactose,50898
lysozyme,50898
G-CSF,50898
digestive system,50898
Rac1,50898
syndactyly,50898
chimera,50898
bile duct,50898
synaptic plasticity,50898
sleep latency,50898
BT,50898
final analysis,50898
P2Y12,50898
cryptophytes,50898
Eurasia,50898
Spitzer Space Telescope,50898
mya,50898
LCX,50898
disjunction,50898
coronary artery bypass graft,50898
Drosophila,50898
Mayan,50898
AZT,50898
Finnish,50898
longitudinal design,50898
hyaluronan,50898
LH2,50898
noninvasive measurements,50898
surface charge,50898
MTR,50898
RAN,50898
Leber,50898
leukocytosis,50898
Chloroquine,50898
casein,50898
ATP hydrolysis,50898
holoendemic,50898
lymphadenopathy,50898
TDP-43,50898
Tdap,50898
Helix pomatia,50898
SAX J1808.4-3658,50898
binding energy,50898
triazine,50898
anesthetist,50898
NZB,50898
dot blot,50898
intrauterine growth restriction,50898
polychlorinated biphenyls,50898
pericytes,50898
beat induction,50898
parasympathetic nervous system,50898
pullback,50898
massif,50898
mesothelioma,50898
dysphoria,50898
group 13,50898
collagenase,50898
minocycline,50898
chirality,50898
tumor necrosis factor-alpha,50898
FCI,50898
salt bridge,50898
interest group,50898
bromide,50898
polybrominated,50898
goblet cell,50898
SM protein,50898
random sequence,50898
Oat,50898
bone grafting,50898
Wolf-Rayet,50898
D. citri,50898
photoproducts,50898
dinitrogen,50898
stereochemistry,50898
osteoclast,50898
infratentorial region,50898
aluminum,50898
PTCA,50898
repressor,50898
cefuroxime axetil,50898
cingulum,50898
retinoids,50898
diurnal cycle,50898
mammal,50898
mycosis,50898
Mueller matrix,50898
village homes,50898
extracellular signal-regulated kinases,50898
dark energy,50898
Autism,50898
hyperbolic,50898
gonad,50898
fungi,50898
domestic violence,50898
CYP3A4,50898
PTA,50898
pterygopalatine ganglion,50898
activation energy,50898
virosome,50898
Cerebrovascular disease,50898
pentachlorophenol,50898
iPr,50898
reduction potential,50898
cyclohexene,50898
Poisson-distributed,50898
scaphoid,50898
vanadium,50898
NBC,50898
intravenous immunoglobulins,50898
anovulation,50898
micelle,50898
risk compensation,50898
fertilization,50898
ATV,50898
glycosylated,50898
cyclin-dependent kinases,50898
piezoelectric,50898
NET.,50898
manual therapy,50898
NOESY,50898
Herzog,50898
xenogeneic,50898
post-hoc test,50898
tachycardia,50898
Pearson correlation,50898
alpha-synuclein,50898
sedimentology,50898
cross-resistance,50898
TBS,50898
glioblastoma,50898
interictal,50898
carnitine,50898
phytochelatin,50898
health literacy,50898
alluvial fan,50898
dihydrogen,50898
trimethylsulfonium,50898
CYP17A1,50898
phosphocholine,50898
enantiomers,50898
chlorinating,50898
rheumatic disorder,50898
peripheral artery disease,50898
mitochondrial myopathy,50898
vitamin K,50898
high-frequency stimulation,50898
ozone layer,50898
dihydroxyacetonephosphate,50898
Bayesian model comparison,50898
epidural space,50898
pleiotropic,50898
immunodiffusion,50898
clam,50898
Gadd45,50898
health care compared,50898
coimmunoprecipitation,50898
B lymphocyte,50898
NORA,50898
overland flow,50898
angiotensinogen,50898
U7,50898
spherical excess,50898
epigenetic,50898
vertebral compression fractures,50898
Branchiopoda,50898
human chorionic gonadotropin,50898
Gospel,50898
glyceraldehyde-3-phosphate dehydrogenase,50898
karyokinesis,50898
morphometry,50898
Smad,50898
CD45RO,50898
cryopreservation,50898
amnesic,50898
microangiopathic,50898
carcinogen,50898
alanine,50898
Berlin University,50898
VAPB,50898
serous,50898
branched DNA,50898
heterocyst,50898
M14,50898
aquaporin 2,50898
nef,50898
Hypermethylation,50898
B. pseudomallei,50898
null mutation,50898
bilayer,50898
Full Scale,50898
transcriptional silencing,50898
escape velocity,50898
diffeomorphic,50898
Burundi,50898
connective tissue,50898
T-score,50898
cadmium chloride,50898
quantization,50898
NRG3,50898
PACS,50898
cerebral palsy,50898
carnivorous,50898
quantitative real-time PCR,50898
Gastroenterologist,50898
labile,50898
hydrogel,50898
maintenance respiration,50898
E/A ratio,50898
CagA,50898
Randomized clinical trials,50898
BAFF-R,50898
coagulation factor VII,50898
hemoglobin A,50898
hypoxia inducible factor,50898
ERK,50898
founder population,50898
TIMI,50898
Gentofte Hospital,50898
mTOR,50898
loess,50898
extracorporeal,50898
HEK293,50898
Wiley-VCH,50898
S. epidermidis,50898
chromosome 6,50898
Purpura,50898
self-esteem,50898
end-systolic volume,50898
epitope mapping,50898
Rhodobacterales,50898
Siberia,50898
confidence limit,50898
CpG dinucleotide,50898
protein folding,50898
Weinmannia,50898
Steril,50898
cardiovascular system,50898
Siderite,50898
pepscan analysis,50898
ICM,50898
TRIF,50898
Gene co-expression network,50898
Bethesda,50898
hematopoietic stem cell,50898
thrombocytes,50898
mixotrophic,50898
thalamus,50898
upper quartile,50898
DLBCL,50898
irrigation,50898
evolvability,50898
haematoma,50898
staphylococci,50898
interspecific competition,50898
interleukin-2,50898
AMT,50898
tsp-1,50898
interstitial lung disease,50898
Mosaicism,50898
forced expiratory volume,50898
Hoechst,50898
nude mice,50898
climate forcing,50898
microbubbles,50898
validation set,50898
Asian Surinamese,50898
focal cortical dysplasia,50898
Draco,50898
multivitamin,50898
pseudoviruses,50898
olfactory system,50898
stanols,50898
vortex,50898
HDLc,50898
Rimonabant,50898
radiative cooling,50898
Archaea,50898
electrophoretic mobility,50898
erodibility,50898
hemiplegic,50898
PLGA,50898
euphotic depth,50898
mammary tumor,50898
small intestine,50898
andesitic,50898
dentate gyrus,50898
isomerization,50898
electron temperature,50898
Alexa Fluor,50898
dislocation,50898
microcystin,50898
branched-chain amino acid,50898
tetralogy,50898
IMPA1,50898
luteal phase,50898
Vietnam,50898
bird,50898
alpha-actinin,50898
Progressive disease,50898
stereochemical,50898
quantitative PCR,50898
OCRL,50898
glucose-6-phosphate dehydrogenase,50898
beta-1 integrin,50898
pre-mRNA,50898
systematic sampling,50898
fasciculus,50898
Human lungs,50898
psychosomatic,50898
dry mouth,50898
mediastinum,50898
indel,50898
QSOs,50898
epoxide,50898
phobia,50898
Klemm,50898
c-jun N-terminal kinase (JNK),50898
DMBT1,50898
ter,50898
folate depletion,50898
chromatographically,50898
American Cancer Society,50898
centromeric region,50898
telephone calls,50898
graft-versus-host disease,50898
WAVE,50898
El 1,50898
intraperitoneally,50898
high cholesterol,50898
isomer shift,50898
cerebellar hemispheres,50898
Kongsfjorden,50898
mass fraction,50898
Osteoarthritis Research Society International,50898
la comunidad,50898
gel filtration,50898
T lymphocyte,50898
humoral immunity,50898
thiolase,50898
sitostanol,50898
random effects,50898
optimal control,50898
water balance,50898
expression system,50898
clear cell,50898
Intraperitoneal,50898
signify,50898
interferon regulatory factor-1,50898
nanosecond,50898
toxic stress,50898
hemodynamics,50898
medical ethics,50898
CD55,50898
Han Chinese,50898
dipole,50898
mas,50898
co-IP,50898
Cbs,50898
ornithine,50898
MC3R,50898
KGaA,50898
nodular regenerative hyperplasia,50898
Cre,50898
sheep,50898
dark matter halo,50898
gut permeability,50898
spontaneous magnetization,50898
CIF,50898
limb bud,50898
snake,50898
biogenetic,50898
HLA-B,50898
thermotropic,50898
polyuria,50898
CD41,50898
primary association,50898
torasemide,50898
vacuum fluctuations,50898
sinoatrial node,50898
common-envelope,50898
20q,50898
hyperopic,50898
pentamer,50898
focal adhesion,50898
EP,50898
bipolar,50898
factor I,50898
VEf,50898
Glasgow,50898
"2,3,7,8-TCDD",50898
Il-6,50898
western blotting,50898
IRAC,50898
SAFB,50898
circular dichroism,50898
Podocarpus,50898
fractional crystallization,50898
Paris,50898
dot 4,50898
HIF-1,50898
sarcoplasmic reticulum,50898
biota,50898
Gla domain,50898
Bassin d'Arcachon,50898
husk,50898
major adverse cardiac events,50898
phytoene,50898
specific risk,50898
gonadotropin,50898
overlayer,50898
choroiditis,50898
OGTT,50898
brain lobes,50898
convulxin,50898
olecranon fracture,50898
carbon sequestration,50898
NF2,50898
Warren,50898
Hellerup,50898
synteny,50898
overturn,50898
SNCA,50898
low-mass X-ray binary,50898
eumelanin,50898
PBL,50898
Kretzschmaria,50898
spermatids,50898
infectious disease,50898
thelytokous,50898
neurologic disease,50898
recombinant virus,50898
KCNQ1,50898
skin fold,50898
proteome,50898
triacylglycerol,50898
radioactive,50898
Nucleosome,50898
metabolic acidosis,50898
Hebbian learning rule,50898
neutrophil elastase,50898
stack,50898
proteomic,50898
Seventeen,50898
photoisomerization,50898
mandrill,50898
pyramidal tracts,50898
endometrial polyp,50898
malondialdehyde,50898
ESR1,50898
CMA,50898
nitrification,50898
neutrophil extracellular traps,50898
immunogen,50898
mesothelial layer,50898
desmoplakin,50898
invertebrate,50898
calving,50898
thylakoid,50898
Intelligence Quotient,50898
tissue microarray,50898
attentional bias,50898
stellar association,50898
cholestasis,50898
TREX1,50898
discourse analysis,50898
NADPH oxidase,50898
bioreactor,50898
KSCN,50898
glycosylation,50898
gynaecomastia,50898
Endophenotype,50898
PhI,50898
oedema,50898
TMTC2,50898
podocyte,50898
Limacina,50898
variable selection,50898
chromosome 17,50898
arable land,50898
optic neuropathy,50898
alpha diversity,50898
Alternaria,50898
Exact test,50898
bromoform,50898
Sinus node,50898
Grouping,50898
deoxycytidine,50898
reaction intermediate,50898
citalopram,50898
cigarette,50898
follicles,50898
cathepsin G,50898
intranasally,50898
nephropathy,50898
Trimix,50898
colonoscopic,50898
vadose zone,50898
atm,50898
Gabon,50898
near-infrared spectroscopy,50898
bioinformatic,50898
Next-generation sequencing,50898
diapedesis,50898
coumestrol,50898
diagenetic,50898
nuclease,50898
myeloid cell,50898
tissue plasminogen activator,50898
muscle hypotonia,50898
chelation,50898
thymidine phosphorylase,50898
grammar,50898
salinities,50898
glycerol 3-phosphate,50898
megaureter,50898
temporalis muscle,50898
superior cervical ganglia,50898
Niger,50898
microbial mat,50898
Galactic halo,50898
Carbachol,50898
cumulative dose,50898
cosubstrate,50898
vitamin D,50898
Himalaya,50898
sympathetic nervous system,50898
S-2,50898
Phloeodictyidae,50898
single umbilical artery,50898
semen quality,50898
Nucleotidase,50898
Serology,50898
K-1,50898
Botrytis,50898
HSPGs,50898
frontier orbitals,50898
hemiplegic migraine,50898
P falciparum,50898
cytomegalovirus (CMV) infection,50898
BPB,50898
Trial Registration,50898
perinatal mortality,50898
hemolytic,50898
thrice,50898
H+-ATPases,50898
Tachycardia,50898
Sphingomonadales,50898
NZW,50898
nuclear envelope,50898
A95,50898
nephron,50898
acyltransferase,50898
genital arousal,50898
transversal plane,50898
SOAs,50898
Concavity,50898
conduction block,50898
CLDN5,50898
CONSORT,50898
angiotensin ii,50898
TRP,50898
categorical data,50898
blued,50898
Pantropical,50898
surrogate marker,50898
stored images,50898
study drugs,50898
BCL-2,50898
Alps,50898
AQP2,50898
cytotoxic T lymphocytes,50898
chromosome 5,50898
TBK1,50898
Leukocytosis,50898
PCP,50898
organic anion transporting,50898
membrane potential,50898
cytochalasin B,50898
stereospecific,50898
Macrophage,50898
Chi-square test,50898
syringe,50898
adaptive radiation,50898
AMOZ,50898
great circle distance,50898
X-ray binary,50898
Achromobacter,50898
lamellipodial,50898
Kampen,50898
interleukin-4,50898
Pylos,50898
lipolysis,50898
alveolar macrophage,50898
Kaletra,50898
Hilbert scheme,50898
femoral artery,50898
methylcobalamin,50898
Adoptive transfer,50898
cytidine,50898
prostate-specific antigen,50898
PIQ,50898
Staphylococcal enterotoxin B,50898
CPS II,50898
laryngeal cancer,50898
mitochondrial biogenesis,50898
vertex attributes,50898
PVT,50898
C-peptide,50898
emancipation,50898
Warsaw,50898
bosentan,50898
flame ionization detector,50898
CD10,50898
East Africa,50898
adeno-associated virus,50898
dacitic,50898
VLDL,50898
deregulation,50898
cell cortex,50898
ambulance,50898
aldosterone synthase,50898
oncogene,50898
FRB 121102,50898
D-2-hydroxyglutarate,50898
tetraethoxysilane,50898
risk averse,50898
radial artery,50898
cone-beam CT,50898
LLINs,50898
Pitavastatin,50898
renal transplantation,50898
S3,50898
CSP,50898
Cyst,50898
linkage group,50898
Surfactant,50898
isospin,50898
aneuploidy,50898
AFE,50898
splice variant,50898
deuteron,50898
universality class,50898
zearalenone,50898
arthroscope,50898
paroxysmal,50898
factor XIIIa,50898
glycoconjugates,50898
deep lake,50898
North Africa,50898
ganglia,50898
fraternal twins,50898
energy balances,50898
Wavelet,50898
DNA testing,50898
anticyclonic,50898
anergy,50898
Functional analysis,50898
Complex I,50898
Event-related potentials,50898
absorption band,50898
Portuguese,50898
maternal smoking,50898
NRI,50898
5-HT1B,50898
lymphocyte count,50898
cofactors,50898
reverse transcription,50898
SVR,50898
tumorigenic,50898
Formant,50898
con,50898
cultivar,50898
crystallin,50898
Bondi,50898
next-generation sequencing,50898
atopy,50898
cartilaginous,50898
radiocarbon dating,50898
Quantitative analysis,50898
Petrosiidae,50898
compound heterozygotes,50898
les affaires,50898
CCL11,50898
Abbott Laboratories,50898
homogenate,50898
Heterozygosity,50898
hydroperoxide,50898
longitudinal studies,50898
antiarrhythmic drug,50898
CD8+ T cells,50898
proteobacteria,50898
Royal College,50898
Hypoglycemia,50898
XG-1,50898
tachyarrhythmia,50898
PZT,50898
enzyme immunoassay,50898
menopause,50898
radiation sensitivity,50898
HFHS,50898
mitochondrial DNA,50898
ERK1/2,50898
GSK3,50898
Log10,50898
android,50898
Geologic Time Scale,50898
reaction coordinate,50898
Academic Medical Centre,50898
deep forest,50898
stress management,50898
Qiagen,50898
phagolysosome,50898
Bcl-2,50898
collider,50898
heme oxygenase 1,50898
faecium,50898
operation success,50898
vitamin E,50898
pseudogenization,50898
Weinheim,50898
LRP5,50898
rhyolitic,50898
FHM2,50898
Gammaproteobacteria,50898
MLVA,50898
surgical pathology,50898
Acid phosphatase,50898
white pine,50898
D-Dimer,50898
solvation shell,50898
MBC,50898
TEOS,50898
c-MYC,50898
functional analysis,50898
dihydroorotase,50898
sulfonylurea,50898
endoplasmatic,50898
TTP,50898
Gene Ontology,50898
CDK,50898
anti-oxidant,50898
Gastroenterologists,50898
unravel,50898
big data,50898
bicarbonate,50898
TT4,50898
ureter,50898
trans-acting,50898
serial dilution,50898
leishmaniasis,50898
dextrin,50898
U2,50898
DNA replication,50898
neurosurgery,50898
maltose,50898
Burman,50898
Cenozoic,50898
transcytosis,50898
trigeminal nerves,50898
phosphoenolpyruvate,50898
DDE,50898
morphogenesis,50898
retinoic acid receptor,50898
farinaceous,50898
heathland,50898
E. huxleyi,50898
impaired glucose tolerance,50898
Thermoanaerobacter,50898
factor V,50898
Ankerite,50898
pathological fracture,50898
protonation,50898
grey matter,50898
anal intercourse,50898
silver staining,50898
gliadin,50898
peat,50898
vermis,50898
delta-T,50898
F-1,50898
independent variable,50898
Aviat,50898
ovalbumin,50898
Poland,50898
campestanol,50898
eudicot,50898
PU.1,50898
ddt,50898
Body composition,50898
West Antarctica,50898
SAMHD1,50898
Neurology,50898
Azithromycin,50898
ceftazidime,50898
cognitive bias,50898
agglutinating,50898
bone scintigraphy,50898
SKF 38393,50898
Cardiac output,50898
ChIP,50898
caterpillar,50898
COBRA,50898
Peloponnese,50898
forest plot,50898
genetic complementation,50898
test sensitivity,50898
isoflavones,50898
spinal dysraphism,50898
alpha rhythm,50898
allosteric inhibition,50898
Aortopexy,50898
53 days,50898
Cimetidine,50898
triamterene,50898
CYP19,50898
multispectral,50898
carbon fixation,50898
plage,50898
Poiseuille flow,50898
AVP,50898
Mean arterial pressure,50898
FEA,50898
Il18,50898
nuclear genome,50898
sip,50898
M phase,50898
leaving group,50898
Notch,50898
evolutionary tree,50898
Jukskei,50898
deciliter,50898
Accretion,50898
prenatal growth,50898
Lense-Thirring precession,50898
PHT,50898
N2O,50898
MSP,50898
calcium channel blockers,50898
xlink,50898
threonine,50898
arsenates,50898
anterograde tracing,50898
dsRNA,50898
magma,50898
meningococcal septicaemia,50898
preprophase band,50898
Glycogen synthase,50898
P66,50898
rheology,50898
molecular chaperone,50898
overprint,50898
T13,50898
sexual selection,50898
viral vector,50898
metaphase I,50898
parabola,50898
kynurenine,50898
targeting sequence,50898
"C0, C1",50898
tumor xenografts,50898
scrub typhus,50898
Scn10a,50898
AC3,50898
iAUC,50898
D. pulex,50898
Cassia alata,50898
thrombin receptor,50898
aesthetics,50898
antiepileptic drugs,50898
Only people,50898
Plato,50898
Sal,50898
SDS-PAGE,50898
dimerization,50898
osteoprotegerin,50898
centroblasts,50898
DDA,50898
KCNE1,50898
CYP11B2,50898
proteomics,50898
perforation,50898
cerebrovascular disease,50898
purine,50898
p-value,50898
nicotinamide,50898
cathepsin,50898
fluorescence microscopy,50898
Wilhelm Wundt,50898
heparan sulfate,50898
TLCO,50898
heart valve,50898
Arabic,50898
diplegic,50898
soil profile,50898
endocrine therapy,50898
FID,50898
Clarke error grid,50898
ciprofloxacin,50898
Lactobacillus casei,50898
propionyl-CoA,50898
propensity score matching,50898
arterial tree,50898
nectar,50898
glycosylate,50898
ED1,50898
Waterham,50898
gametogenesis,50898
string duality,50898
frequency distribution,50898
Cas9,50898
mass spectrometric,50898
Thyroid nodules,50898
aspartate aminotransferase,50898
enteral nutrition,50898
TNFR,50898
intercalates,50898
KLF5,50898
Rho kinase,50898
SDB,50898
goat,50898
carbidopa,50898
bow shock,50898
renormalization,50898
ALAT,50898
Apennines,50898
alpha-tocopherol,50898
Middle East,50898
fasciculations,50898
Lisfranc fracture,50898
Namibia,50898
NUTS3,50898
annual plant,50898
free fall,50898
free-electron gas,50898
intermittent claudication,50898
2E,50898
high blood pressure,50898
cervical artery dissection,50898
ESL,50898
channel opener,50898
emergency medical services (EMS),50898
Vertebral anomalies,50898
MFA,50898
superconductor,50898
Lie algebra,50898
amphiphilic,50898
macromolecule,50898
neural crest,50898
neutral current,50898
synovial sarcoma,50898
Geoffrey Harris,50898
fluid overload,50898
Transantarctic Mountains,50898
carp,50898
Italian,50898
mucopolysaccharidosis,50898
censored regression model,50898
Wilms' tumor,50898
quality assurance,50898
ramification,50898
Mediterranean,50898
principal component analyses,50898
alpha-galactosidase,50898
quantize,50898
surgical complication,50898
schizotypal,50898
p-type,50898
diffusion-weighted imaging,50898
lymphadenectomy,50898
CIITA,50898
Zambia,50898
performance appraisal,50898
feed-forward inhibition,50898
Aporrectodea caliginosa,50898
omega-3,50898
etanercept,50898
SME,50898
niche modelling,50898
Aqua satellite,50898
complex algebra,50898
topological string theories,50898
Sample size,50898
unemployment benefits,50898
heterogeneous catalysts,50898
task scheduling,50898
AEC,50898
Supercritical fluid,50898
solid phase extraction,50898
twin-to-twin transfusion syndrome,50898
ventricular fibrillation,50898
draft,50898
photoperiod,50898
MDR1,50898
deductive closure,50898
T helper cells,50898
master equation,50898
financial regulation,50898
human herpesvirus,50898
biocatalysis,50898
hypothalamic-pituitary-adrenocortical axis,50898
Phospholipase A,50898
ordinary differential equations (ODEs),50898
clinical genetics,50898
Campylobacter,50898
adaptive capacity,50898
Tortonian,50898
dephasing,50898
spondyloarthritis,50898
scientific journal,50898
gastropod,50898
dynamic nuclear polarization,50898
Danish,50898
Calabi-Yau,50898
intermediate filament,50898
Tractography,50898
ERMs,50898
gastrointestinal bleeding,50898
fruit tree,50898
normal distribution,50898
psychological ownership,50898
popcorn,50898
edentulous,50898
Vigor,50898
maleimide,50898
Spanish,50898
Kr,50898
leucocytes,50898
apnea,50898
Irish,50898
su(3),50898
posttraumatic stress disorder (PTSD),50898
cosmology,50898
zoonotic disease,50898
sexually transmitted infection,50898
Tsinghua University,50898
intramembranous ossification,50898
OAS,50898
chronic thromboembolic pulmonary hypertension,50898
European Southern Observatory,50898
platelet concentrates,50898
Butler,50898
Lirio,50898
tank,50898
Antibiotics,50898
linear assignment problem,50898
healthcare-associated pneumonia,50898
flora,50898
multiplicative function,50898
virtual computer,50898
tetraplegic,50898
quinone,50898
Curvularia,50898
food challenges,50898
situation analysis,50898
mirror neurons,50898
congenital anomalies,50898
LNAI,50898
membrane cofactor protein,50898
canonical correlation analysis,50898
large deviation principle,50898
Large Hadron Collider,50898
Cross-docking,50898
antibonding,50898
NAC,50898
postexposure prophylaxis,50898
developmental dynamics,50898
Meta-analysis,50898
triterpenoid,50898
Obstetrics,50898
Greek,50898
mimetic,50898
cardiology,50898
ether lipid,50898
homeostatic,50898
Coenzyme A,50898
tuberculin skin test,50898
hypersensitivity,50898
antimicrobial peptide,50898
metabolic profiles,50898
shrimp,50898
boride,50898
process algebra,50898
singlet oxygen,50898
mode-locked,50898
implantable cardioverter-defibrillator,50898
Progenitor cells,50898
lyase,50898
south Limburg,50898
Steatosis,50898
Monocular,50898
immunosuppressant drug,50898
emotional lability,50898
semi-Markov,50898
formal language,50898
severe combined immunodeficiency (SCID),50898
mmm,50898
The Hague,50898
polychlorinated dibenzofurans,50898
anthropology,50898
Priming,50898
laryngoscope,50898
TRUS,50898
TCFA,50898
organification,50898
Magnetic field,50898
alternative certification,50898
Casablanca,50898
interleukin 10,50898
low-density polyethylene,50898
conspiracy theories,50898
acquired immune deficiency syndrome (AIDS),50898
neurolinguistic,50898
airborne,50898
semiparametric,50898
laparoscopically,50898
latent variables,50898
FMA,50898
European Parliament,50898
DBH,50898
lens space,50898
bounded arithmetic,50898
Thomas Jefferson National Accelerator Facility,50898
utility theory,50898
visual system,50898
Fatou component,50898
New Guinea,50898
Gypsy,50898
gamma rays,50898
time resolved,50898
General Practitioner,50898
solar-like oscillations,50898
"Sunnyvale, CA",50898
liver resection,50898
Vu university medical Center,50898
oviposit,50898
transition rates,50898
leukaemia,50898
chronic periodontitis,50898
hepatitis B vaccine,50898
seabass,50898
London Stock Exchange,50898
conveyor belt,50898
deep vein thrombosis (DVT),50898
metabolic disease,50898
normalised,50898
ordered set,50898
Soviet communism,50898
self-replicating,50898
gastro-oesophageal reflux disease,50898
RAG2,50898
spinal muscular atrophy,50898
TMSI,50898
Markovian,50898
European Pulsar Timing Array,50898
genetic disorder,50898
Reconstruction,50898
toric code,50898
prime ideal,50898
dance music,50898
University Medical Center,50898
Jagow,50898
innovation management,50898
shear modulus,50898
cichlid,50898
forkhead,50898
Habbo,50898
PC-12,50898
farming,50898
sonographically,50898
spatial planning,50898
integer,50898
Casius,50898
DESY,50898
cosmic-ray,50898
nanoindentation,50898
oily fish,50898
prey fish,50898
ultramafic,50898
phagocytic cells,50898
Atrioventricular,50898
metric learning,50898
Nigeria,50898
MRI scan,50898
Eriksen,50898
zeolite,50898
Facial Action Coding System,50898
sesquiterpene lactone,50898
weakly interacting massive particles,50898
microflora,50898
volcanic field,50898
endoparasites,50898
tissue transglutaminase,50898
density waves,50898
sol-gel,50898
SED,50898
Coventry,50898
asylum seekers,50898
scheduling discipline,11029
transaldolase deficiency,50898
thoracotomy,50898
LHCb,50898
spinal cord stimulation,50898
social exchange theory,50898
Heisenberg,50898
attribution theory,50898
demographic surveillance system,50898
peripheral nerves,50898
powerless,50898
Loess Plateau,50898
hyperlipidemia,50898
popular music,50898
organ donor,50898
adult education,50898
Malaysia,50898
Demospongiae,50898
Sesimbra,50898
Lie groupoid,50898
EU competition law,50898
humeral head,50898
orogen,50898
genocide,50898
duodenal cancer,50898
plagiarism,50898
mouthwash,50898
Tischeria ekebladella,50898
respiratory epithelium,50898
sulfonation,50898
Morishima,50898
cognitive neuroscience,50898
pop music,50898
Munich,50898
collaborative care,50898
valine,50898
CoRoT,50898
hyperaccumulator,50898
LEP,50898
medical laboratory,50898
cytoreductive surgery,50898
bedrock,50898
hereditary hemorrhagic telangiectasia,50898
acute kidney injury,50898
R&S,50898
orthography,50898
transparent language,50898
bicycle,50898
thrombolytic,50898
extensive form,50898
muscarinic,50898
octahedron,50898
tissue engineering,50898
hexamethyldisilazane,50898
cytoarchitectonic,50898
Limburg,50898
psychoses,50898
renal tract,50898
critical period,50898
endotoxemia,50898
interferon-alpha,50898
enteropathy,50898
N-back,50898
sea level rise,50898
systemic disease,50898
European Social Survey,50898
metaiodobenzylguanidine,50898
Riesz,50898
base deficit,50898
intergovernmental,50898
aldehyde,50898
relative humidity,50898
challenging behaviour,50898
Kisin,50898
RCW 86,50898
natural killer (NK) cell,50898
essential thrombocythemia,50898
early childhood education,50898
Stroop task,50898
schizophrenic,50898
nuchal translucency,50898
edible insects,50898
autoantigen,50898
X-ray absorption,50898
STIPs,50898
macroeconomic model,50898
ethoxy,50898
antibiotic resistance,50898
pink-footed geese,50898
topological string theory,50898
antiinflammatory,50898
motor evoked potentials,50898
poly(vinyl alcohol),50898
random vector,50898
Ellezelles,50898
sequence alignment,50898
Patient Health Questionnaire,50898
ACPAs,50898
Computable General Equilibrium,50898
reaction time,50898
bacteriorhodopsin,50898
principle component analysis,50898
augmented reality,50898
civil death,50898
Holland,50898
C/EBP,50898
personality scale,50898
Eley-Rideal,50898
Pongo abelii,50898
polymorphonuclear leukocyte,50898
exposure therapy,50898
Mechanical Turk,50898
Nakano,50898
synaptic vesicle,50898
pressure sensor,50898
Cibao Valley,50898
analyzed qualitatively,50898
collective behavior,50898
phlogiston,50898
Young tableaux,50898
Legendre,50898
PTL,50898
The fireball,50898
Iron deficiency,50898
semi-structured interview,50898
multi-threading,50898
conflict escalation,50898
permittivity,50898
dynamic energy budget,50898
internal mammary artery,50898
notorious,50898
muscular dystrophy,50898
aminoglycoside,50898
married couples,50898
mercury,50898
Media multitasking,50898
Andean,50898
finitistic,50898
double-double,50898
phosphite,50898
BANTING,50898
aperture synthesis,50898
acyl-CoA dehydrogenase,50898
Cross-sectional data,50898
Bhagavadgita,50898
palpebral,50898
Los Angeles,50898
Enterovirus,50898
asylum seeker,50898
antimonite,50898
taxonomic impediment,50898
Teknika,50898
post-Suharto,50898
principal factor,50898
alpha-beta,50898
Monte Carlo simulation,50898
production factors,50898
voltage-gated sodium channel,50898
Zincken,50898
simply connected,50898
spectroscopic transitions,50898
mass media,50898
troponin,50898
predictive modeling,50898
heart muscle,50898
hyperfiltration,50898
Kyoto Protocol,50898
Kota,50898
polymorph,50898
contingent valuation,50898
aqueous humor,50898
Islamic finance,50898
steroidogenesis,50898
qualitative data analysis,50898
drift station,50898
metabolic disorder,50898
timbre,50898
geriatric oncology,50898
biofilm,50898
term rewriting system,50898
psychoactive drug,50898
breast enlargement,50898
Cytochrome P450,50898
trail,50898
advance directives,50898
green-light,50898
reductionist,50898
R-1,50898
opportunity cost,50898
intracellular pH,50898
palaeomagnetic,50898
animal experimentation,50898
Risk assessment,50898
aromaticity,50898
Atlas,50898
cost function,50898
anti-diabetic,50898
Ecuador,50898
glucocerebroside,50898
Heliothis virescens,50898
three-phase,50898
exosomes,50898
Graph theory,50898
tumor-associated antigen,50898
high news,50898
garbage collection,50898
LS 5039,50898
oxidative metabolism,50898
lognormal,50898
venous catheter,50898
behavioral sciences,50898
EBSCO,50898
Eurobarometer,50898
Economica,50898
evaluation function,50898
language technology,50898
Systemic Functional Linguistics,50898
adrenal,50898
APOC3,50898
folliculitis,50898
photoinhibition,50898
GPCR,50898
electricity market,50898
imperfect competition,50898
encapsulated bacteria,50898
global health,50898
thermometer,50898
direct oral anticoagulant,50898
torus,50898
wield,50898
NICE,50898
hydrostatic,50898
substring,50898
float glass,50898
anomie,50898
wearable technology,50898
antrum,50898
Fourier analysis,50898
resting membrane potential,50898
typed lambda calculus,50898
bone mineral,50898
International Obesity Taskforce,50898
fungal infection,50898
dizygotic (DZ),50898
N-methyl-D-aspartate,50898
PTV,50898
non-finite,50898
Ising model,50898
Z-isomer,50898
phospholipase C,50898
VSS,50898
Afro-Asiatic,50898
Brong Ahafo Region,50898
Interferon,50898
pediatrician,50898
microwave,50898
allotetraploid,50898
externality,50898
Joule heat,50898
jugular vein,50898
Intensive Care Unit (ICU),50898
Lisbon,50898
Lake Constance,50898
Sb2,50898
ion-exchange chromatography,50898
Cygnus X-3,50898
autofluorescence,50898
lung function testing,50898
composite resin,50898
neurodegenerative disorder,50898
PeV,50898
Golden Retriever,50898
cardiac cycle,50898
anaesthesia,50898
OASIS,50898
vestibular schwannoma,50898
market microstructure,50898
collocation,50898
Morant Bay Rebellion,50898
heterocyclic,50898
gemcitabine,50898
whale,50898
electronegativities,50898
MDMA,50898
end-stage renal disease,50898
God,50898
Chironomus,50898
gluten-sensitive enteropathy,50898
Narcissism,50898
HIV disease,50898
endocellular,50898
Rotterdam,50898
PPE,50898
2-deoxy-D-glucose,50898
TFM,50898
protoplanetary disk,50898
electric current,50898
syn.,50898
sandpile,50898
ischaemic stroke,50898
posttraumatic stress disorder,50898
credit valuation adjustment,50898
Coca-Cola,50898
electrochemical potential,50898
deep brain stimulation,50898
cosmological constant,50898
Bos,50898
oligopoly,50898
co-evolution,50898
insulin degludec,50898
cymes,50898
choroid,50898
light scattering,50898
Axiom,50898
social justice,50898
immunoglobulin A,50898
Galactic Centre,50898
lip,50898
nonlinear optical,50898
adjuvant therapy,50898
transjugular intrahepatic portosystemic shunt,50898
Decision analysis,50898
dicots,50898
square lattice,50898
local anesthesia,50898
item response theory models,50898
affine Hecke algebra,50898
NCI,50898
mixing console,50898
amphotericin B,50898
aprotic solvent,50898
water vapor,50898
RCN,50898
indeterminism,50898
flue-gas desulfurization,50898
Concatenation,50898
topaquinone,50898
Baltimore,50898
ASSER,14051
prenatal development,50898
chroma,50898
Jacobi polynomials,50898
cleavage plane,50898
iodine-123,50898
Nijmegen,50898
diffuse reflection,50898
social entrepreneurship,50898
Cosmic Microwave Background,50898
cancer pain,50898
syntenic,50898
uniform approximation,50898
domestication,50898
Lutetium,50898
GMCSF,50898
New Testament,50898
decision analysis,50898
tennis shots,50898
special education,50898
hematoxylin,50898
sustainable development,50898
astrochemical,50898
ovule,50898
Bultfontein,50898
molars,50898
nonassociative,50898
temporal arteritis,50898
functional programming language,50898
Southern Alps,50898
Unit cube,50898
Herbrand,50898
rapid serial visual presentation,50898
horse,50898
minimally invasive surgery,50898
holography,50898
cocaine,50898
Ames test,50898
plasmodial,50898
oxidation-reduction,50898
romance,50898
thymoma,50898
maximum entropy,50898
infinitive,50898
West Antarctic Ice Sheet,50898
population dynamics,50898
STR,50898
liminality,50898
Yerseke,50898
TIMIT,50898
Determinism,50898
instar,50898
water retention curve,50898
performativity,50898
communicative competence,50898
pairs',50898
left-handedness,50898
post traumatic stress disorder (PTSD),50898
k-class,50898
transactional analysis,50898
biofuels,50898
genetic isolate,50898
soft news,50898
European revolutions,50898
complete intersection,50898
G0V star,50898
hypoglycemia,50898
tissue-engineered,50898
age-related macular degeneration,50898
dichloromethane,50898
blazar,50898
skin conductance,50898
nucleosynthesis,50898
interaural time difference,50898
Bernstein,50898
CWA,50898
convex hull,50898
Cyanobacteria,50898
amnestic,50898
continuous flash suppression,50898
Wadden Sea,50898
transition-state,50898
quantum mechanics,50898
Burg,50898
Herschel Space Observatory,50898
probability distribution,50898
pyridinium,50898
oncology,50898
P-glycoprotein,50898
vastus medialis,50898
Martin,50898
bilinear form,50898
impact factor,50898
Soviet occupation,50898
hyperintensities,50898
semisimple,50898
midbrain,50898
Moesia,50898
MC3,50898
disseminated intravascular coagulation,50898
Q methodology,50898
mesotrophic,50898
Human milk,50898
Bryant,50898
heme peroxidases,50898
DXA,50898
West Papua,50898
mucopolysaccharidoses,50898
synonym,50898
Typhlodromus,50898
atrioventricular block,50898
category III,50898
Kalimantan,50898
XMM-Newton observatory,50898
febrile neutropenia,50898
iodothyronine deiodinase,50898
Kurdistan,50898
CES,50898
Systemic Lupus Erythematosus,50898
cancer immunology,50898
emergency psychiatry,50898
Murchison Widefield Array,50898
gravity waves,50898
Bantu languages,50898
flucytosine,50898
barnacle goose,50898
nitrobenzene,50898
KH,50898
mental disorder,50898
intra-aortic balloon pump,50898
eutrophic,50898
extraocular muscles,50898
Western Esotericism,50898
Himalayas,50898
photothermal,50898
takers,50898
Nash equilibria,50898
Takeda,50898
global environmental politics,50898
CZE,50898
Natural Language Processing,50898
oestrogen,50898
Cinahl,50898
spatial models,50898
etiological agent,50898
stimulus modality,50898
electroosmotic flow,50898
Agrobacterium tumefaciens,50898
palate,50898
air showers,50898
ion-selective electrode,50898
individualism,50898
peroxynitrite,50898
path dependency,50898
Model Driven Architecture,50898
Amsterdam Density Functional,50898
social mobility,50898
St Mary,50898
stochastic optimization,50898
signal peptide,50898
Movement Assessment,50898
epiphyte,50898
Internationale,50898
multifocal intraocular lens,50898
Reference values,50898
obsessive compulsive disorder,50898
cyclophane,50898
combination chemotherapy,50898
Molecular Beam Epitaxy,50898
urogynaecology,50898
Metropolis algorithm,50898
nominal group technique,50898
risk premia,50898
IAEA,50898
Antiretroviral drugs,50898
isoelectronic,50898
myelodysplastic syndromes,50898
telescope,50898
Messinian salinity crisis,50898
lovage,50898
SiO2,50898
deciduous dentition,50898
stem-loop,50898
osmotic agent,50898
global capacity,50898
communication theory,50898
Type 1,50898
Lithuania,50898
meromorphic,50898
anticonvulsive drugs,50898
geodesic flow,50898
insolvency,50898
gram-negative bacilli,50898
congenital abnormalities,50898
prosthesis,50898
olfactory function,50898
nitrophorin,50898
schema therapy,50898
rotator cuff,50898
motor coordination,50898
Expanded Disability Status Scale,50898
proinflammatory cytokine,50898
multiculturalism,50898
field flow fractionation,50898
material design,50898
pedagogue,50898
balanced budget,50898
cognitive walkthrough,50898
microcontinent,50898
neonatal intensive care,50898
astronomical dating,50898
Iranian women,50898
Limes,50898
Nitraria,50898
urticaria,50898
CT angiography,50898
protein engineering,50898
quantum field theory,50898
photodissociation,50898
norethisterone,50898
nanoflares,50898
solar system,50898
machine learning,50898
tissue tropism,50898
Rietveld,50898
junior synonym,50898
polarimeter,50898
Cross-sectional study,50898
peripheral nervous system,50898
vitamin K deficiency,50898
pulsed dye laser,50898
macrocyclic,50898
humidity,50898
methionine metabolism,50898
International studies,50898
sensitize,50898
clumped,50898
Tetraedron,50898
syncytial,50898
locally compact,50898
antiferromagnet,50898
enthesopathy,50898
The cell,50898
barrier options,50898
large bowel,50898
hydrazones,50898
chronic lymphocytic leukemia (CLL),50898
Kolmogorov complexity,50898
Bayesian statistics,50898
urban regeneration,50898
binary companions,50898
numerical model,50898
sensory memory,50898
optical flow,50898
tetrabromobisphenol-A,50898
anthocorid bugs,50898
mood disorders,50898
DSM-IV-TR,50898
Brevik,50898
Mono,50898
This life,50898
graphene,50898
pseudoknot,50898
gram-negative bacteria,50898
vitalist,11631
corneal graft,50898
late bloomers,50898
root zone,50898
joystick,50898
Ankylosing Spondylitis,50898
MenY,50898
nitrogen fixation,50898
Bacillus,50898
gestational diabetes mellitus,50898
neurotransmitters,50898
Clinical pharmacology,50898
TEM,50898
strategic management,50898
heuristics,50898
patient empowerment,50898
olefins,50898
Girona,50898
Kepler Space Telescope,50898
histopathologic examination,50898
income inequality,50898
environmental planning,50898
Jonathan Safran Foer,50898
micromachining,50898
financial market,50898
data model,50898
Emiliania huxleyi,50898
narcissistic personality disorder,50898
Helsinki,50898
Limanda limanda,50898
Steven Neuberg,50898
manumission,50898
isopods,50898
count data,50898
lentigines,50898
audiological,50898
pharmacodynamic,50898
CGD,50898
broiler,50898
aberration,50898
hepatitis B virus (HBV),50898
Invalid,50898
optical pumping,50898
Benin,50898
cross-conjugated,50898
Western Ghats,50898
Markov chain Monte Carlo (MCMC),50898
coinduction,50898
mechlorethamine,50898
leek,50898
Vry,50898
theology,50898
Exploratory,50898
Respiratory chain,50898
radical polymerization,50898
conditional change model,50898
object manipulation,50898
coherent anti-stokes Raman scattering (CARS),50898
classical logic,50898
concentration gradient,50898
star-forming region,50898
EDT,50898
Homocysteine,50898
monozygotic twin,50898
bacillus Calmette-Guerin,50898
forest transition,50898
ectodermal dysplasia,50898
chronic disease,50898
Orlando,50898
paradox,50898
Halo,50898
milion,50898
balance scale,50898
acute phase response,50898
mechanical energy,50898
Dutch empire,50898
maximum likelihood,50898
humoral immune system,50898
frequency-dependent selection,50898
arthralgia,50898
Berlin Wall,50898
Focus,50898
orpiment,50898
GNP,50898
lymph,50898
monoculture,50898
Napster,50898
X rays,50898
philosopher,50898
bilingual education,50898
path coefficient,50898
Toll-like receptors,50898
phonological,50898
magnetoencephalography,50898
HEDDA,50898
Opisthocomus,50898
supportive psychotherapy,50898
Albufera,50898
first-order logic,50898
nerve conduction velocity,50898
Species richness,50898
emission spectrum,50898
delta-9-tetrahydrocannabinol,50898
photothermolysis,50898
explicit game,50898
Groot,50898
equine,50898
metalloproteinase,50898
P-3,50898
vulva,50898
Shh,50898
ball milling,50898
involuntarily unemployed,50898
mal,50898
lazy evaluation,50898
intima,50898
phosphoramidite,50898
breast reconstruction,50898
atrophic,50898
small molecule,50898
anxiolytic,50898
epicentre,50898
gestational hypertension,50898
adipose tissue macrophages,50898
ileus,50898
internality,50898
OptiMARK,50898
space heating,50898
Hulst,50898
atopic disease,50898
retinitis pigmentosa,50898
HAHA,50898
congenital malformation,50898
TKA,50898
EFF,50898
wart,50898
cervix,50898
Quadrupole,50898
Eutrophication,50898
Tetranychus urticae,50898
fluorescent tube,50898
CHARA Array,50898
biomineralization,50898
W boson,50898
plastocyanin,50898
data quality,50898
automaticity,50898
gamma-butyrolactone,50898
favela,50898
5-oxoproline,50898
acute pancreatitis,50898
Central Africa,50898
Titani,50898
ellipsoid,50898
folklore,50898
doubly stochastic,50898
Internal consistency,50898
Green Bank Telescope,50898
time-invariant,50898
diastole,50898
endotoxic shock,50898
Rouse model,50898
branched-chain amino acids,50898
Basis risk,50898
RAMS,50898
envelope glycoprotein gp120,50898
femur,50898
formaldehyde,50898
hurdles,50898
Synechocystis,50898
Capsicum,50898
Siberian larch,50898
M-theory,50898
discrete choice,50898
propositional logic,50898
clinical endpoint,50898
Oost,50898
Luhmann,50898
motor unit recruitment,50898
Euclidean quantum gravity,50898
induced hypothermia,50898
risk aversion,50898
drums,50898
Michelson interferometer,50898
UN,50898
stratum corneum,50898
GATA4,50898
biopharmaceuticals,50898
codec,50898
IWRM,50898
serine-threonine kinase,50898
Trypanosoma,50898
globalisation,50898
ureteropelvic junction,50898
peroxisomal disorder,50898
diabetes mellitus type 2,50898
flight simulator,50898
Semantic Network Analysis,50898
Herpes simplex virus (HSV),50898
neural synchronization,50898
vitamin D deficiency,50898
photoelectron spectroscopy,50898
piperidine,50898
Bayesian network,50898
esophageal sphincter,50898
SAXS,50898
Molecular Dynamics,50898
osteosynthesis,50898
sulfhydryl,50898
anthropometric,50898
TPS,50898
facial electromyography,50898
Kyoto,50898
14 women,50898
Lyme borreliosis,50898
functional dependency,50898
URu2Si2,50898
depreciation,50898
mill,50898
phenylpyridine,50898
subalgebra,50898
attention-deficit/hyperactivity disorder,50898
superconformal field theories,50898
tessellation,50898
gravitational-wave background,50898
fiber-reinforced composite,50898
access control,50898
Nrf2,50898
Small-angle X-ray scattering,50898
GnRH,50898
confocal microscope,50898
overdominance,50898
neuropsychologist,50898
dipeptide,50898
Leipzig,50898
titanium,50898
imidazolinone,50898
chloroquine,50898
HBB,50898
nosocomial,50898
radical scavenger,50898
Heisenberg model,50898
dalteparin,50898
extensor,50898
E-4031,50898
Mare aux Songes,50898
fluvial,50898
consanguinity,50898
N-terminus,50898
bioturbation,50898
paracrine signaling,50898
NAC.,50898
bowel,50898
rate coding,50898
interrupt,50898
alternative hypothesis,50898
archaea,50898
B-mode,50898
lipoprotein lipase,50898
Alteromonadales,50898
Scn5a,50898
metaphase II,50898
monokine,50898
Genistein,50898
numerical continuation,50898
isotypes,50898
phlogopite,50898
scale-free network,50898
Mamestra brassicae,50898
lunate bone,50898
flash photolysis,50898
chromosomal inversion,50898
stereoselective,50898
herbaceous,50898
heteronormativity,50898
a-helical,50898
adenosine A2A,50898
statistical population,50898
sulfinpyrazone,50898
INVS,50898
affinity chromatography,50898
B4GALT3,50898
quantile regression,50898
artesunate,50898
minigene,50898
bowel resection,50898
homosexuality,50898
littermate,50898
aromatase,50898
NS3,50898
spike train,50898
MMP inhibitors,50898
prephenate,50898
BMS group,50898
mathematical model,50898
photoautotrophic,50898
brain plasticity,50898
Bacteroides,50898
gluconeogenesis,50898
random coil,50898
delayed gastric emptying,50898
phlebotomy,50898
LGT,50898
mesencephalic,50898
biostratigraphy,50898
serotherapy,50898
CKM matrix,50898
elastin,50898
airway obstruction,50898
blood test,50898
"Hoffmann, R.",50898
sulfide,50898
staphylococcal,50898
motoneurons,50898
7-nitroindazole,50898
TATA box,50898
selection pressure,50898
Sulfur,50898
phenylethanolamine N-methyltransferase,50898
UniProt,50898
Hill sphere,50898
Egypt,50898
Microglia,50898
Vicia faba,50898
Y-chromosome,50898
dephosphorylation,50898
precuneus,50898
syntaxin1B,50898
breast cancer screening,50898
substoichiometric,50898
sodium nitroprusside,50898
haploinsufficiency,50898
neutral antagonist,50898
Reelin,50898
thyroid dysgenesis,50898
excitotoxic,50898
antigen presentation,50898
relativistic beaming,50898
cellular infiltration,50898
diabetic ulcer,50898
ribosome biogenesis,50898
SOS response,50898
asteroseismology,50898
renal ischemia,50898
neurostimulator,50898
carbonic anhydrase,50898
papillary thyroid carcinoma,50898
7-dehydrocholesterol,50898
MOPP,50898
rebound tenderness,50898
North Chicago,50898
GPR54,50898
myofilament,50898
aspartate transcarbamoylase,50898
radial velocities,50898
grapheme,50898
Measles,50898
KG,50898
allergen,50898
Whitehall,50898
basan,50898
South Asia,50898
ASAT,50898
mesothelium,50898
Brachytherapy,50898
Kruskal-Wallis,50898
ventral striatal,50898
gaits,50898
purgatory,50898
slow release,50898
somatosensory evoked potentials,50898
DnaK,50898
Biesbosch,50898
ventricular hypertrophy,50898
nematode,50898
reaction dynamics,50898
drug delivery,50898
facilitated diffusion,50898
culture conversion,50898
GLP-2,50898
organometallic,50898
Hedyosmum,50898
murine typhus,50898
tubal patency,50898
warns,50898
Syk,50898
Estradiol,50898
spliceosome,50898
short turn,50898
AFLP,50898
CHP,50898
end-tidal carbon dioxide,50898
pay attention,50898
RNASEH2A,50898
IL5,50898
syncytiotrophoblast,50898
Sox9,50898
false negative,50898
bisphenol A,50898
complement cascade,50898
nomogram,50898
aneuploid,50898
molecular dynamics (MD),50898
exosite,50898
interleukin 6,50898
AMPK,50898
parabolic,50898
Roughton,50898
confounder,50898
dithiothreitol,50898
HIF-1 alpha,50898
Greenland Plate,50898
dystonin,50898
diatom,50898
SLC6A1,50898
resource consumption,50898
SAT,50898
ethyl acetate,50898
Greece,50898
mutation rate,50898
adrenergic,50898
somite,50898
fluvoxamine,50898
adenine,50898
sexual dimorphism,50898
extrapyramidal signs,50898
anamnestic,50898
Immunofluorescence,50898
ars operon,50898
glycerol kinase,50898
atrioventricular node,50898
vies,50898
myocardial ischaemia,50898
JPEG,50898
ampullary,50898
Alveolar,50898
magnetic anisotropy,50898
mitogen-activated protein kinase,50898
synaptosomes,50898
glomerulopathy,50898
Hdac1,50898
CD25,50898
A4,50898
catecholamine,50898
triage,50898
acetyl-CoA,50898
Cell therapy,50898
global sources,50898
agalsidase alfa,50898
HBx,50898
oleylamine,50898
interleukin-10,50898
TRIB2,50898
maltodextrin,50898
Phytoseiidae,50898
aortic regurgitation,50898
coinfection,50898
International Prognostic Scoring System,50898
EIA,50898
gliosis,50898
automation,50898
urine retention,50898
dioxane,50898
isotherm,50898
NHS,50898
Hoechst 33342,50898
Neonatal Intensive Care Unit,50898
dendritic spine,50898
primary cilia,50898
Cambridge University Press,50898
band-pass filter,50898
slit-lamp,50898
hydroxyl,50898
colonic polyp,50898
triflate,50898
midwife,50898
interstitium,50898
NIH,50898
GC box,50898
peroxidase,50898
liver biopsies,50898
p65,50898
N14,50898
antiferromagnetic interaction,50898
aqueous humour,50898
Neuro-Oncology,50898
optical density,50898
LHM,50898
Exome sequencing,50898
geomagnetic polarity time scale,50898
porri,50898
erythroid,50898
allogeneic,50898
heterotrophic,50898
TNFRSF14,50898
cuculiform,50898
diazole,50898
carbon offsets,50898
OPR,50898
multiple pregnancy,50898
BPA,50898
aggrecan,50898
transport function,50898
CFCl3,50898
HES1,50898
epipelagic,50898
CD107a,50898
cumulant,50898
NONMEM,50898
Pseudomonadales,50898
hyperactivation,50898
fluid balance,50898
TSHR,50898
neurodevelopmental disorder,50898
micromolar,50898
tensile stress,50898
activin,50898
homopolymer,50898
Parkin,50898
P3a,50898
TM7,50898
C5a,50898
tetanus vaccine,50898
somatoform disorders,50898
best-fit,50898
pattern recognition receptors,50898
hemidesmosomes,50898
Alfuzosin,50898
TRIB1,50898
cytomegalovirus retinitis,50898
cell fractionation,50898
AACR,50898
Doppler beaming,50898
scavenger,50898
hysterosalpingography,50898
empathic concern,50898
Schiff base,50898
reliability analysis,50898
ionophores,50898
site-specific mutagenesis,50898
ovary,50898
osteomyelitis,50898
barnacle geese,50898
nucleosome,50898
cell cycle checkpoint,50898
genetically modified,50898
TLR7,50898
familial hypercholesterolemia,50898
phosphoinositide 3-kinase,50898
Kelvin-Helmholtz,50898
IL-17,50898
endocrine disruption,50898
WPMH,50898
Kossa,50898
Brodmann Area,50898
Sevoflurane,50898
IRMS,50898
Zellweger spectrum,50898
MEK inhibitor,50898
ADAR1,50898
monophyly,50898
TGFBR1,50898
Metabolite,50898
These eyes,50898
wind tunnel,50898
eicosanoids,50898
transport category,50898
Vineland,50898
thioredoxin,50898
endocannabinoid system,50898
bisexuality,50898
biostatistician,50898
CRH,50898
balancing selection,50898
rifampicin,50898
Clade D,50898
Paleomagnetic,50898
post mortem,50898
adsorbents,50898
DR Congo,50898
B horizon,50898
EFEMP1,50898
Chiron,50898
AIFM1,50898
organohalogens,50898
phosphotransferase system,50898
Blimp-1,50898
magnification,50898
elastic scattering,50898
HSP90 inhibitor,50898
cerebral vasculature,50898
Precipitate,50898
cell-mediated immunity,50898
ethyl chloroformate,50898
Be star,50898
Bone resorption,50898
reflex bradycardia,50898
heart disease,50898
dual-energy X-ray absorptiometry,50898
SN 185,50898
wideband,50898
LFB,50898
lime,50898
libido,50898
Confocal microscopy,50898
drowsiness,50898
epidural,50898
immunophenotyping,50898
pull-apart basin,50898
chronic obstructive lung disease,50898
Veillonella,50898
respiratory distress,50898
exenatide,50898
PLoS ONE,50898
protein ligand,50898
4-aminopyridine,50898
stellar mass black hole,50898
secund,50898
Discriminant analysis,50898
Type 2 DM,50898
Ambrosia,50898
Southern blotting,50898
crystal field,50898
applied psychology,50898
protein structure,50898
JNK,50898
monounsaturated,50898
isotype,50898
HMQC,50898
lathosterol,50898
ice sheet,50898
Model 3,50898
acylcarnitine,50898
premature ejaculation,50898
tractography,50898
The Gambia,50898
adjuvant radiotherapy,50898
Bax,50898
DMB,50898
fjord,50898
G2/M checkpoint,50898
rectal administration,50898
soluble adenylyl cyclase,50898
PDX1,50898
Rac,50898
activation product,50898
PEEP,50898
intestinal epithelium,50898
tracts,50898
Pearson R,50898
SNS,50898
lysosome,50898
thermal contact,50898
Hdac2,50898
quality adjusted life year,50898
systemic circulation,50898
elimination half-life,50898
cetyltrimethylammonium bromide,50898
tripeptide,50898
pericyte,50898
Breezand,50898
minimal change disease,50898
iron sulfide,50898
DNA primer,50898
alkene,50898
type II collagen,50898
EZH2,50898
ETA,50898
binary distribution,50898
CD43,50898
beta-adrenoceptor antagonist,50898
matrigel,50898
phytosterol,50898
tele-immersion,50898
luteal,50898
Cg,50898
Immunofluorescence microscopy,50898
rank correlation,50898
Glutamine,50898
Troponin T,50898
L'histoire,50898
Dobutamine,50898
radioactivity,50898
Thrombus,50898
M33,50898
72 hours,50898
cation-pi interaction,50898
chlorophyll-a,50898
fission,50898
Dead Sea,50898
zebra,50898
epithelial cell,50898
miosis,50898
unequilibrated,50898
malignant transformation,50898
Poaceae,50898
Merck,50898
lymphopenia,50898
PTS permease,50898
T-stage,50898
antithrombotic,50898
literary theory,50898
African green monkeys,50898
thyroid gland,50898
endomyocardial,50898
thresholding,50898
donor atom,50898
granulomatous,50898
semipermeable membrane,50898
geniculate,50898
crystallization processes,50898
serine protease,50898
phylogenetic tree,50898
undecanoate,50898
stress-energy tensor,50898
CD11a,50898
como,50898
K562,50898
NFATc,50898
frequency analysis,50898
psychoactive,50898
thoracoscopic,50898
pain threshold,50898
pulmonary edema,50898
United Nations Population Fund,50898
retinal vein,50898
high-sensitivity C-reactive protein,50898
restenosis,50898
adrenal cortex,50898
1-octanol,50898
gas separation,50898
FLNB,50898
Oud,50898
exon skipping,50898
isozymes,50898
erectile dysfunction,50898
adiabatic ionization,50898
electrophysiological,50898
restriction enzyme,50898
field characteristic,50898
Electron transfer,50898
sciatic nerve block,50898
tracheobronchomalacia,50898
electric cell-substrate impedance sensing,50898
overaccumulation,50898
mast cells,50898
Adalimumab,50898
SPLC,50898
Glyburide,50898
chitinase,50898
anal sex,50898
protein kinase B,50898
dienone,50898
lidocaine,50898
tumor-infiltrating lymphocytes,50898
The long arm,50898
Vagotomy,50898
gingivitis,50898
ionomycin,50898
DJ-1,50898
pituitary,50898
methyl group,50898
geodynamic,50898
inflection point,50898
APOB,50898
prasugrel,50898
Fluoxetine,50898
turnover number,50898
pyrite,50898
Vimentin,50898
Rapamycin,50898
faithfully,50898
Molecular Operating Environment,50898
pollutant,50898
Congo,50898
Factor VII,50898
refractive indices,50898
SIC,50898
17p,50898
NOD mice,50898
Kyalami,50898
KLF4,50898
phagocytosed,50898
planetary migration,50898
Allele,50898
Bland-Altman plot,50898
QTL mapping,50898
serostatus,50898
BCAR1,50898
Langerin,50898
phonophobia,50898
Orthopaedic Research Society,50898
Gassmann,50898
Washington,50898
carbonic anhydrase inhibitor,50898
Adipose tissue,50898
paresthesia,50898
ind,50898
astrogliosis,50898
optical module,50898
nadolol,50898
Propidium iodide,50898
PKA,50898
ABCG5,50898
Hey1,50898
The ISME Journal,50898
CDK6,50898
quinpirole,50898
mass density,50898
gynoid,50898
horizontal cell,50898
p24 protein,50898
intracranial hemorrhage,50898
Ara,50898
NF-kB,50898
Tie2,50898
albuminuria,50898
molecular layer,50898
RTOG,50898
frontal lobe,50898
eicosanoid,50898
Lymphadenectomy,50898
transmigration,50898
neuropeptide Y,50898
Iceland,50898
orchitis,50898
galectin,50898
biomechanical,50898
CXCL10,50898
Betic,50898
multiple organ failure,50898
Taiwanese,50898
wood,50898
microalbuminuria,50898
cytoarchitecture,50898
microbicide,50898
acylcarnitines,50898
lanosterol,50898
unconformities,50898
IGHV,50898
Hemophilia A,50898
ETB,50898
myocardial scar,50898
Disjunct,50898
P3b,50898
tumor suppressor gene,50898
tonicity,50898
water model,50898
PREX1,50898
thiamine,50898
Vibrionales,50898
CBI,50898
photoacoustic tomography,50898
noncompetitive inhibition,50898
heterozygote,50898
Factor XII,50898
fide,50898
J Clin Oncol,50898
cyclostratigraphy,50898
chylomicron,50898
DNA-binding protein,50898
Sp1,50898
ticagrelor,50898
embargo,50898
desmosterol,50898
Enoximone,50898
TMC,50898
STAT3,50898
endothelial activation,50898
BEP,50898
supply-side,50898
ABCG8,50898
NC4,50898
thiolate,50898
Roche,50898
Sural nerve,50898
Japan,50898
Hertzsprung-Russell diagram,50898
hyperextension,50898
tubulopathy,50898
CYP1A1,50898
fibrinolytic,50898
natriuresis,50898
maser,50898
subiculum,50898
urea breath test,50898
mixing angle,50898
preprophase,50898
enthalpy,50898
unsaturated,50898
general idea,50898
Nicardipine,50898
ZO-1,50898
capillaries,50898
Cordillera Central,50898
cross-species transmission,50898
seipin,50898
vasodilatation,50898
Zea,50898
xenotransplantation,50898
Pull-apart basin,50898
thermal emission,50898
isoenzyme,50898
AVS,50898
Paclitaxel,50898
drainage basin,50898
AP-1,50898
AKT,50898
L-Arginine,50898
CD49d,50898
Propranolol,50898
sigma pi,50898
Optical depth,50898
5-HIAA,50898
INSTI,50898
Mesozoic,50898
ITGB1,50898
premalignant,50898
Vascular Surgery,50898
Betaproteobacteria,50898
amyloid,50898
photo-multiplier,50898
pharynx,50898
Cox proportional hazards model,50898
Fontan procedure,50898
pentanal,50898
clomiphene,50898
microvessel,50898
oral cancer,50898
breast cancer treatment,50898
CD63,50898
T-max,50898
BCL6,50898
hydrocephaly,50898
virosomes,50898
QRS complex,50898
inositol triphosphate,50898
amygdalae,50898
rate-distortion,50898
retrograde tracing,50898
cytotoxic T-lymphocytes,50898
carotid endarterectomy,50898
respiratory depression,50898
dicot,50898
CXCL8,50898
mouse blood,50898
t-butyl hydroperoxide,50898
Epinephrine,50898
BRU,50898
cartoon,50898
trophoblast,50898
significance level,50898
Clio,50898
allergen immunotherapy,50898
substitution reaction,50898
GQ,50898
ApoA1,50898
deflation,50898
progressed,50898
testes,50898
apoA-II,50898
autoradiography,50898
stage 1 sleep,50898
Messinian,50898
vue,50898
herbivore,50898
HSD17B4,50898
quantitative structure-activity relationship,50898
connexin,50898
lacrimal gland,50898
NHEJ,50898
lipid peroxidation,50898
posaconazole,50898
heterocysts,50898
filopodia,50898
A23187,50898
dorsal columns,50898
Melatonin,50898
Medikal,50898
reentrant,50898
acute hepatitis B,50898
Visual acuity,50898
external validity,50898
radiolabeled,50898
allometric scaling,50898
allosteric regulation,50898
PRKCQ,50898
The members,50898
American Pain Society,50898
hypopyon,50898
URL,50898
adenosinergic,50898
KPNB1,50898
IBMX,50898
DAIDS,50898
homicide,50898
coronary bypass surgery,50898
Photoinhibition,50898
Hey2,50898
KRAS,50898
allometry,50898
arterial stiffness,50898
H3,50898
E52,50898
Bremen,50898
upsilon,50898
antithrombin deficiency,50898
chest tube,50898
icosahedral,50898
Physical examination,50898
headwater,50898
Spermine,50898
Basophil,50898
ET-3,50898
cardiac magnetic resonance imaging,50898
long-term potentiation,50898
PIK3CA,50898
hypospadias,50898
square planar geometry,50898
XSS,50898
micro-array,50898
Classic Maya collapse,50898
myocardial infarct,50898
S1PR3,50898
scanning electron microscope,50898
S53,50898
alcian blue,50898
diuresis,50898
representative sequences,50898
acidity,50898
d-orbital,50898
NAP1,50898
ILS,50898
hemophilia,50898
Ham,50898
polyphyletic,50898
pyramidal neuron,50898
glycemic control,50898
C9orf72,50898
estimated glomerular filtration rate,50898
biochemistry,50898
salpingectomy,50898
fruit fly,50898
Goa,50898
paraventricular nucleus,50898
nitrogen balance,50898
acetyl,50898
PD-L2,50898
brine,50898
outer atmosphere,50898
HYDRUS,50898
pyrolysis,50898
PMSF,50898
antirheumatic,50898
AIDA,50898
Mauritius,50898
Mylan,50898
cyclin,50898
diphosphorylated,50898
hexanal,50898
podzolisation,50898
TCD,50898
waist-to-hip ratio,50898
domain analysis,50898
GGL,50898
Aliihoeflea,50898
immune tolerance,50898
CD18,50898
2CV,50898
Ex vivo,50898
Mus,50898
Blood transfusion,50898
Microsatellite,50898
DLT,50898
Massachusetts Medical Society,50898
hypoperfusion,50898
desmin,50898
Cherenkov light,50898
RIIA,50898
Amazon basin,50898
antisense oligonucleotide,50898
Nord,50898
nucleus reuniens,50898
s-adenosylmethionine,50898
saccadic eye movements,50898
hot flush,50898
adipose,50898
live birth rate,50898
Gambia,50898
BCAS3,50898
coronary circulation,50898
toothpaste,50898
sleep onset latency,50898
King Saud,50898
tetrahedra,50898
Male dominance,50898
biometry,50898
integrin alpha M,50898
Light microscopy,50898
alpha 2-macroglobulin,50898
ira,50898
DRD1,50898
Alveolar macrophage,50898
recurrent nerve,50898
Lower extremity,50898
mediastinal,50898
tracheobronchial tree,50898
sinusoidal endothelial cells,50898
deacetylation,50898
minimum inhibitory concentration,50898
radiofrequency ablation,50898
FADH,50898
inferior parietal lobule,50898
p38 MAP kinase,50898
adductor,50898
Ferring,50898
chromosome 10,50898
critical stage,50898
atheroma,50898
protein domain,50898
He I,50898
R-wave,50898
HMBC,50898
gram-positive,50898
agouti-related protein,50898
progenote,50898
carbon accounting,50898
CCL4,50898
pharynges,50898
Linepithema,50898
Survivin,50898
chemotactic,50898
Learning & Memory,50898
isotope dilution mass spectrometry,50898
dermatan,50898
heartburn,50898
leptospirosis,50898
M-wave,50898
HeLa,50898
chronic granulomatous disease,50898
fault zone,50898
Mann-Whitney test,50898
SO42-,50898
microtiter plate,50898
glutamatergic,50898
TNFa,50898
nephritis,50898
CCR1,50898
neural plasticity,50898
ampicillin,50898
chondroitin,50898
monocot,50898
hyperpyrexia,50898
antitrypsin,50898
cholesterol 7 alpha-hydroxylase,50898
The net,50898
Abdulaziz,50898
recurrent laryngeal nerve,50898
pancreatic ribonuclease,50898
gravity darkening,50898
ligand exchange,50898
CIN3,50898
dog,50898
survival model,50898
TGF-beta 1,50898
Canonsburg,50898
haloform reaction,50898
Cdc42,50898
crystallins,50898
chromosomal recombination,50898
CCR6,50898
cell adhesion,50898
GRT,50898
genetic testing,50898
smooth pursuit,50898
Coimmunoprecipitation,50898
ERR,50898
Hypoaspis miles,50898
N7,50898
TPH2,50898
Neutrophil,50898
bacterial pneumonia,50898
mitochondrial disorder,50898
hepatic encephalopathy,50898
Feinstein,50898
norfloxacin,50898
optic chiasm,50898
hitchhiking,50898
hyperkinesia,50898
brain scan,50898
extremum,50898
methanogenesis,50898
salinization,50898
CLP,50898
Cisplatin,50898
Nepal,50898
intestinal permeability,50898
coronary thrombosis,50898
Disclosure,50898
tooth cleaning,50898
The cells,50898
ECHS1,50898
QT interval,50898
Emery,50898
phenylpropanoid,50898
Tropical climate,50898
HCN,50898
cellular transformation,50898
hyperoxia,50898
mixed reality,50898
Feed-forward,50898
hotspot,50898
chemical chaperone,50898
Abdominal fat,50898
reproductive isolation,50898
J Am Coll Cardiol,50898
glans penis,50898
NDUFV1,50898
RhoA,50898
nucleocapsid,50898
supersoft,50898
nucleophilicity,50898
fresh frozen plasma,50898
absolute configuration,50898
Nkx2-5,50898
atrioventricular,50898
models 1,50898
metabolic rate,50898
E12,50898
inverse relation,50898
desmoplastic,50898
Viral load,50898
omega 6,50898
Pericyte,50898
Nuclear Medicine,50898
macrosomia,50898
computerized tomography,50898
Kupffer cell,50898
spatiotemporal pattern,50898
long bone,50898
knockout mouse,50898
Vancomycin,50898
anticodon,50898
motor neuron disease,50898
eosinophilia,50898
octane,50898
collimator,50898
conjunctiva,50898
IL-1RA,50898
transcriptome,50898
TRIOBP,50898
Dryas,50898
good clinical practice,50898
anti-anti,50898
Sorbas,50898
Mantoux test,50898
LUMO,50898
Adrenalectomy,50898
Gestational age,50898
Proteinuria,50898
humoral response,50898
occipital lobe,50898
acute retinal necrosis,50898
pyrimidines,50898
lung parenchyma,50898
Animal Behaviour,50898
E.coli,50898
plasmalogens,50898
ordination,50898
competitive inhibitor,50898
statistical sample,50898
Oxygen,50898
oocyte retrieval,50898
BIRC5,50898
aminoaciduria,50898
Tectonics,50898
paroxysmal nocturnal hemoglobinuria,50898
genomic imbalances,50898
s-adenosylhomocysteine,50898
protective factor,50898
Van der Waals surface area,50898
neuropraxia,50898
superior tarsal muscle,50898
monocular deprivation,50898
beat period,50898
T-cell receptor,50898
conservation biology,50898
dual control,50898
silt,50898
Thrombosis,50898
glycosphingolipids,50898
apoprotein,50898
amylase,50898
sulfoxide,50898
Gja5,50898
suprasellar,50898
extra point,50898
bioenergetics,50898
Dabigatran,50898
thromboxane A2,50898
inhibitory synapse,50898
Ophthalmology,50898
chromosome 13,50898
histogram,50898
prednisolone,50898
AHD,50898
prenylation,50898
two-component regulatory system,50898
I-f,50898
HTR3B,50898
prothrombinase,50898
HMG-CoA,50898
PTTG1,50898
alpha-MSH,50898
hydroxylysine,50898
Lacustrine,50898
dimethylarginine dimethylaminohydrolase,50898
Nicotiana benthamiana,50898
optically stimulated luminescence,50898
reverse transcriptase PCR,50898
paraxanthine,50898
paraphyletic,50898
ditrigonal,50898
leucine,50898
Ectatomma ruidum,50898
antiferromagnetically,50898
osteopenia,50898
Sediment,50898
adiposity,50898
firefly luciferase,50898
lectin pathway,50898
gender identity,50898
extratropical,50898
CCL17,50898
eastern edge,50898
motor neuron,50898
N3,50898
syk,50898
PBR,50898
Isotope,50898
APACHE II,50898
varicella-zoster virus,50898
nuclear imaging,50898
"Hyderabad, India",50898
"reading, PA",50898
allergies,50898
subdomain,50898
A549,50898
cell surface receptor,50898
Olig2,50898
optimal design,50898
tonsil,50898
detritus,50898
purpura,50898
pattern recognition,50898
ob,50898
Framingham,50898
putrescine,50898
corepressors,50898
Apgar score,50898
dermis,50898
Miglustat,50898
H II region,50898
psychotropic,50898
sur,50898
genetic load,50898
absolute risk reduction,50898
VE-cadherin,50898
reducing agent,50898
contextual learning,50898
phagocytic,50898
adaptive immune response,50898
inhibition constant,50898
PNH,50898
macrophage inflammatory protein-2,50898
thermogenic,50898
Chk2,50898
chronic lymphocytic leukemia,50898
activated partial thromboplastin time,50898
erythropoiesis,50898
Subthalamic nucleus,50898
blunt trauma,50898
ABCA5,50898
focal adhesions,50898
common warts,50898
institutional review boards,50898
photoionization,50898
predictive biomarker,50898
Slade,50898
IL4R,50898
hyperbola,50898
stadial,50898
pregnancy terminations,50898
phenocopy,50898
SG,50898
Subgroup analysis,50898
Hematology,50898
Hof,50898
broth microdilution,50898
toll-like receptor 4,50898
substratum,50898
embolisation,50898
alternative splicing,50898
pyridinoline,50898
cyprinid,50898
crystallinity,50898
tandem arrays,50898
SAPS II,50898
Firmicutes,50898
Biogen Idec,50898
reptile,50898
plant reproduction,50898
cytochrome P450 3A4,50898
halogen,50898
Artemether,50898
cardiac failure,50898
short term memory,50898
zirconium,50898
FSK,50898
Grb2,50898
metasomatized,50898
sympathetic innervation,50898
HMGB1,50898
mechanosensation,50898
Diabetes mellitus type 1,50898
L-type calcium channels,50898
C-II,50898
epimerase,50898
Philadelphia,50898
Italiana,50898
middle temporal gyrus,50898
Pannonian Basin,50898
background selection,50898
PBA,50898
la libertad,50898
fluorescence correlation spectroscopy,50898
tenase,50898
IceCube,50898
Tissue Doppler,50898
Incisor,50898
Oncogene,50898
lignocellulosic biomass,50898
CX3CR1,50898
Lens,50898
mCrab,50898
premolar,50898
integrins,50898
gravity anomalies,50898
daf,50898
Transmission electron microscopy,50898
non-homologous end-joining,50898
hypoactive sexual desire disorder,50898
critical energy,50898
sickle cell,50898
teratogens,50898
IL-13,50898
Fleiss,50898
securin,50898
cell nucleus,50898
provitamin A,50898
vocal cord,50898
NG2,50898
progestagen,50898
ring-closing reaction,50898
adrenal insufficiency,50898
carnation,50898
multiethnic society,50898
heteroplasmic,50898
blood platelet,50898
carbonate platform,50898
compound heterozygosity,50898
soil classification,50898
CD30,50898
fluorophore,50898
UTP,50898
phorbol 12-myristate 13-acetate,50898
galactic plane,50898
lapse rate,50898
glycosuria,50898
neck dissection,50898
PER1,50898
Northern Hemisphere,50898
Clonidine,50898
mitotic cyclin,50898
histopathologically,50898
mOsm,50898
functional dyspepsia,50898
neonate,50898
glucosyl,50898
catabolic,50898
Occult,50898
nuclear transport,50898
PDE5 inhibitor,50898
UDP-glucose,50898
diode array detector,50898
Gfap,50898
Synaptobrevin,50898
liver failure,50898
manometric,50898
c-Jun,50898
caisson,50898
partial charge,50898
Slit-scan,50898
solitary tract,50898
diastolic function,50898
enoyl-CoA hydratase,50898
ultrapotassic,50898
senescence,50898
paralogs,50898
E18,50898
k-means clustering,50898
CXCL9,50898
v-src,50898
Abcg1,50898
magnetic braking,50898
total metal,50898
fasciculation,50898
overconsumption,50898
metasomatic,50898
OHSS,50898
ethyl group,50898
type I error,50898
Moho,50898
Dinantian,50898
limestone,50898
diploid,50898
paracrine,50898
brown fat,50898
fragile X mental retardation protein,50898
reference limit,50898
Hsp70,50898
cholinesterase inhibitors,50898
female sexual arousal disorder,50898
dus,50898
filarial,50898
bile canaliculi,50898
systolic dysfunction,50898
extensor digitorum,50898
cardiac hypertrophy,50898
histiocytic,50898
toxoplasma,50898
Amerongen,50898
bimolecular fluorescence complementation,50898
liraglutide,50898
splanchnic,50898
influenza A/H1N1,50898
CR3,50898
k-Ras,50898
cdc25c,50898
Graves' disease,50898
belimumab,50898
downhill,50898
PDB,50898
CMV retinitis,50898
RAAS,50898
endocardial,50898
hemolysis,50898
elastase,50898
Carotenoid,50898
hypocortisolism,50898
blebbing,50898
adipokine,50898
ceramide,50898
HLA-A2,50898
biliary epithelial cells,50898
inflammasome,50898
amphiboles,50898
MS/MS,50898
Mansfield,50898
asthenospheric,50898
mussel,50898
lipogenesis,50898
peristalsis,50898
Western diet,50898
procoagulant,50898
Hemoglobin,50898
amyotrophic lateral sclerosis,50898
Lamin A,50898
tidal locking,50898
sarcoma,50898
Proteobacteria,50898
goethite,50898
femoral nerve,50898
antifibrinolytic,50898
vetch,50898
electroporation,50898
multidrug resistant,50898
IL-23,50898
thiazide,50898
crystallography,50898
sexual arousal disorder,50898
bipolar disorder,50898
C1b2,50898
positive result,50898
UDP-N-acetylglucosamine,50898
syndecan-1,50898
XCL1,50898
GLP-1 receptor agonist,50898
biliary tree,50898
Metoprolol,50898
Radioligand,50898
Merck Serono,50898
T0,50898
furfural,50898
unexplained infertility,50898
Shackleton,50898
paramo,50898
North Atlantic,50898
petrographic,50898
anterior limb,50898
blood product,50898
VAMP2,50898
crustal thickening,50898
sortilin,50898
Sodium dodecyl sulfate,50898
electron energy loss spectroscopy,50898
bioaccumulation,50898
open source,50898
UTI,50898
exhaled nitric oxide,50898
phytosterols,50898
N-acetylaspartate,50898
vanishing twin,50898
dorsal motor nucleus,50898
DIT,50898
TiterMax,50898
desmosome,50898
gout,50898
MIS,50898
ultrametric,50898
impression formation,50898
implied volatility,50898
quadrupole splitting,50898
ketogenic diet,50898
orange carotenoid protein,50898
saddle point,50898
quadriceps muscles,50898
inverse problem,50898
Clean Development Mechanism,50898
rhinitis,50898
gastroenteritis,50898
L99,50898
CIDNP,50898
social media,50898
Phenylketonuria,50898
reading time,50898
spasmodic dysphonia,50898
thoracic vertebrae,50898
global game,50898
magnetic shielding,50898
Paediatrics,50898
mean-field theory,50898
data assimilation,50898
giant cell,50898
vitamin D receptor,50898
NOTCH1,50898
animal testing,50898
Myeloperoxidase,50898
CD150,50898
anatomic position,50898
hydration reaction,50898
S-adenosylmethionine,50898
dynamic logic,50898
Symphysis,50898
Isotope ratio mass spectrometry,50898
immunoglobulin M,50898
signalling theory,50898
Triassic,50898
heterotic,50898
finite difference scheme,50898
UPOV,50898
mare,50898
angiogram,50898
suprachiasmatic nucleus,50898
packed cell volume,50898
electron beam,50898
Hainaut,50898
semantic gap,50898
tapwater,50898
ordered logit,50898
HD+,50898
Nambu-Jona-Lasinio model,50898
pulmonary sequestration,50898
discrete dipole approximation,50898
social influence,50898
grounded theory,50898
Lovelock,50898
squalene monooxygenase,50898
"N,N-dimethylaniline",50898
cost-minimization analysis,50898
complement system,50898
Case series,50898
CTNS,50898
Delphi technique,50898
kilopascal,50898
database technologies,50898
path planning,50898
Mach-Zehnder interferometer,50898
otitis media,50898
Calhoun,50898
Kalman filter,50898
effective potential,50898
action selection,50898
binocular disparity,50898
academic hospital,50898
objective function,50898
DQ8,50898
metamodel,50898
rheologically,50898
Pareto front,50898
AMPA receptor,50898
Europeanisation,50898
generalizability theory,50898
modernist,50898
Eugen Rosenstock-Huessy,50898
vaginal introitus,50898
subdwarf,50898
Spin glass,50898
channelopathies,50898
Atlas.ti,50898
gamma distribution,50898
piece-rate,50898
ICD-10,50898
secession,50898
3T,50898
synthetic chemistry,50898
critical limb ischemia,50898
community-acquired pneumonia,50898
ethnography,50898
anhydrite,50898
Aristotle,50898
Pancreatic cyst,50898
aphthous,50898
el al,50898
drug reactions,50898
time complexity,50898
hereditary disorder,50898
defibrillator,50898
perceptual system,50898
STARD,50898
Syndemic,50898
Kawai,50898
pericardial effusion,50898
eczema,50898
Van Maanen,50898
church planting,50898
chronotype,50898
operation time,50898
electromyographic,50898
EMBASE,50898
Anal atresia,50898
Ambon,50898
Singapore,50898
topological entropy,50898
tripalmitin,50898
predatory bugs,50898
G-protein-coupled receptor,50898
Polymerase chain reaction (PCR),50898
Raloxifene,50898
sperm competition,50898
gluten-free diet,50898
NUTS2,50898
Winden,50898
tropical deforestation,50898
Gnutella,50898
polyphagous,50898
male infertility,50898
cataracts,50898
media consumption,50898
postselection,50898
social choice,50898
word order,50898
colic,50898
bradykinesia,50898
odorant,50898
OMIM,50898
intrinsic motivation,50898
factor analytic methods,50898
Cynicism,50898
Propensity score matching,50898
NACE,50898
neoadjuvant,50898
endosperm,50898
Personalization,50898
Injury Severity Score,50898
isothiocyanate,50898
internode,50898
Linguistics,50898
Dothistroma septosporum,50898
Biofeedback,50898
neurobiology,50898
Large Magellanic Cloud,50898
antimonate,50898
IHS,50898
pituitary stalk,50898
space X,50898
Subtyping,50898
flavivirus,50898
string theory,50898
muscle contraction,50898
asparagine,50898
Commentary,50898
pi-electron,50898
Twins Early Development Study,50898
social security,50898
granulocyte colony-stimulating factor,50898
dynamical diffraction,50898
Submillimeter Array,50898
Magnetic resonance images,50898
arteriovenous malformations,50898
glomerular filtration rate (GFR),50898
pronated,50898
tubuloglomerular feedback,50898
torsion,50898
endometrial cancer,50898
Padua,50898
Delft,50898
hidden potential,50898
riparian,50898
general-equilibrium,50898
speleothem,50898
intermetallic compound,50898
moral reasoning,50898
Laves phase,50898
external beam radiation therapy,50898
cosmic microwave background,50898
coupling constant,50898
Google,50898
type constructor,50898
APC/C complex,50898
Linum,50898
continuous function,50898
artificial intelligence,50898
comparison test,50898
Intelligence test,50898
transmural pressure,50898
magnetic moment,50898
chronic bronchitis,50898
market liquidity,50898
pharmacophore,50898
click chemistry,50898
proliferative vitreoretinopathy,50898
lipid membrane,50898
QSO,50898
sensation seeking,50898
tungsten oxide,50898
Antwerp,50898
transgender men,50898
Derivatization,50898
International normalized ratio,50898
mineralogy,50898
G-protein coupled receptors,50898
Iphiseius degenerans,50898
metatarsophalangeal,50898
Gorenstein,50898
Larus fuscus,50898
neo-liberal,50898
Medical Research Council,50898
plantar aponeurosis,50898
encephalitis,50898
Revised NEO personality Inventory,50898
thermal equilibrium,50898
slash-and-burn,50898
soft radiation,50898
scleractinian corals,50898
risky sexual behavior,50898
Fermi gas,50898
NPD,50898
peer-to-peer file sharing,50898
eurozone crisis,50898
personal computer,50898
Limburgian,50898
Edinburgh,50898
xeroderma pigmentosum,50898
video game,50898
Kostka,50898
structural equation modeling (SEM),50898
spinal manipulation,50898
Houston,50898
diastereoselectivity,50898
Pareto optimal,50898
gallstone,50898
ribotype,50898
endarterectomy,50898
racemose,50898
brevis,50898
brainstorms,50898
consonant,50898
sickle,50898
psychologist,50898
NEMESIS,50898
vibrational circular dichroism,50898
laser cooled,50898
dead cells,50898
Lumbricus rubellus,50898
solar analog,50898
H.E.S.S.,50898
FUT2,50898
photometrically,50898
The sequence,50898
hilar,50898
real interest rate,50898
Kwa,50898
Ka-band,50898
light-harvesting complex,50898
Troposphere,50898
deaf,50898
bivariate normal distribution,50898
Keynesian,50898
minimax,50898
cation-exchange,50898
vocal learning,50898
external fixator,50898
Shannon,50898
DCF,50898
Flemish,50898
proof theory,50898
Kullback-Leibler distance,50898
catheter ablation,50898
fall prevention,50898
tacit knowledge,50898
Kinematics,50898
B cell malignancy,50898
uncertainty analysis,50898
Windkessel,50898
organ donation,50898
Vaccination,50898
rhabdomyosarcoma,50898
cervical spine injury,50898
enzyme analysis,50898
skepticism,50898
fundoplication,50898
asymptote,50898
GW150914,50898
startle reflex,50898
sea surface temperatures,50898
gentrifying,50898
Circadian rhythm,50898
IMF,50898
Northern Africa,50898
trauma center,50898
Tetrahydrocannabinol,50898
Geert Wilders,50898
Lates calcarifer,50898
heredity,50898
pyromellitic dianhydride,50898
backtests,50898
Boxtel,50898
major force,50898
autopoiesis,50898
Pavlovian-instrumental transfer,50898
ITC,50898
EM algorithm,50898
High Energy,50898
inferior frontal gyrus,50898
phage display,50898
groupoid,50898
Chlamydia,50898
Bosmina longirostris,50898
natural killer (NK) cells,50898
5S,50898
adaptive designs,50898
germinal center (GC),50898
rare-earth,50898
isothermal,50898
perseveration,50898
Fc receptor,50898
Geophagus brasiliensis,50898
maximum likelihood estimator,50898
microduplication,50898
hysteresis,50898
interferometer,50898
adult.,50898
Mongolia,50898
inferior alveolar nerve,50898
synovium,50898
molten globule,50898
masculinization,50898
LSE,50898
Branta leucopsis,50898
medication management,50898
multiple sequence alignment,50898
child abuse,50898
ball race,50898
obligate anaerobe,50898
hypertelorism,50898
central tendency,50898
biocatalyst,50898
population density,50898
Ellisras,50898
fixed point,50898
Mycobacterium leprae,50898
horseradish peroxidase,50898
right-wing populist,50898
Pico Island,50898
weak ordering,50898
biorefinery,50898
Density Functional Theory (DFT),50898
Granulocyte,50898
aneurysm,50898
polyunsaturated,50898
body image,50898
Paramaribo,50898
tranching,50898
glycosaminoglycans,50898
constructivist,50898
nitrogen oxides,50898
metadata,50898
austenitic,50898
Cooper pair,50898
stiffness matrix,50898
Melastomataceae,50898
Left-handedness,50898
cross-docking,50898
nested case-control study,50898
Positron emission tomography (PET),50898
venous pressure,50898
Cognitive behavioral therapy,50898
eyes open,50898
sciatic nerve,50898
diffractogram,50898
electron donor,50898
neural pathway,50898
nuclear cardiology,50898
aquacultural,50898
repetitive strain injury,50898
free electron,50898
vertebral artery,50898
optic nerve head,50898
Mucor indicus,50898
immune thrombocytopenic purpura,50898
ABI,50898
silylation,50898
carbon cycle,50898
tetraploid,50898
Sobolev,50898
Childbirth,50898
carbazole,50898
double layer,50898
Erik,50898
SLC6A4,50898
vascular endothelial growth factor receptor,50898
natural selection,50898
Camberwell,50898
NOs,50898
Silene,50898
adaptive learning,50898
scalar curvature,50898
inbred,50898
Delphi method,50898
DTPA,50898
Hampson,50898
meningioma,50898
creep,50898
Costimulation,50898
pneumatic,50898
Bas,50898
Avon,50898
ecological niche,50898
hexane,50898
Axel,50898
cutoff frequency,50898
North Rhine-Westphalia,50898
Duffy,50898
Stimulus onset asynchrony,50898
optoelectronic,50898
SGR 1806-20,50898
Caridina,50898
lipid emulsion,50898
candidate-gene,50898
microspectroscopy,50898
fuel efficiency,50898
response analysis,50898
two-dimensional conformal field theories,50898
X-linked,50898
LEN,50898
bioMerieux,50898
Schiermonnikoog,50898
reproducing kernel Hilbert space,50898
The advocate,50898
Europe 2020,50898
wastewater treatment,50898
coronal mass ejections,50898
interstitial pneumonitis,50898
Brownian dynamics,50898
DR1,50898
A Group,50898
tetraphenylporphyrin,50898
Remote sensing,50898
model predictive control,50898
anti-CD3 monoclonal antibody,50898
Dell,50898
influenza vaccine,50898
preorder,50898
Workers Party,50898
framing perspective,50898
Rhizoglyphus,50898
osteogenesis imperfecta,50898
total mesorectal excision,50898
posterior tibial,50898
Northern Italy,50898
East German,50898
Lisse,50898
dental prostheses,50898
beta-carboline,50898
amphipathic,50898
adaptive dynamics,50898
shear strength,50898
remineralization,50898
The lagoons,50898
handedness,50898
nodule,50898
superconductivity,50898
styrene,50898
Arctic,50898
J2000,50898
geneticist,50898
local loop,50898
cognitive training,50898
DNA vaccines,50898
plexus,50898
proper time,50898
physical therapy,50898
autocrine,50898
oculocutaneous albinism,50898
S-35,50898
Anselm,50898
Switzerland,50898
emerging market,50898
potential future exposure,50898
Cognitive Linguistics,50898
Jamaica,50898
Nielsen,50898
ATP-binding cassette transporter,50898
physician-assisted suicide,50898
FDI,50898
ordinary differential equations,50898
Hall mobility,50898
hysterectomy,50898
trauma centre,50898
Lettuce,50898
mutagenesis,50898
amplifier,50898
Fordyce spots,50898
aryl,50898
Aphalaridae,50898
VMS,50898
taboo,50898
collembolan,50898
DNA melting,50898
normalized compression distance,50898
leading edge,50898
surface plasmon,50898
NBL,50898
probability theory,50898
Chernobyl disaster,50898
pycnodysostosis,50898
cofinality,50898
Curcumin,50898
energy price,50898
leucine zipper,50898
cardiac valve,50898
second-row,50898
social desirability,50898
United States Environmental Protection Agency,50898
sine-Gordon,50898
food allergy,50898
kinesin-5,50898
ataxia,50898
type 2 diabetic,50898
epistasis,50898
corpus linguistics,50898
domineering,50898
winning strategy,50898
Tyco Healthcare,50898
cyclooctatetraene,50898
patella,50898
Cluster analysis,50898
laminae,50898
easy axis,50898
Gulf Cooperation Council,50898
antibody-dependent cellular cytotoxicity,50898
Cordillera de Talamanca,50898
capsulorhexis,50898
chronosequence,50898
horizon 2000,50898
membranous nephropathy,50898
p-adic,50898
populism,50898
Apley,50898
insula,50898
intellectual disabilities,50898
triad,50898
dynamic programming,50898
financial statement,50898
EEC,50898
spin model,50898
fisheries,50898
macrocycle,50898
bone marrow failure,50898
posterior distribution,50898
natural experiment,50898
crystallized intelligence,50898
oceanic crust,50898
spatial analysis,50898
pharmaceutical industry,50898
stand density,50898
cointegration,50898
mesenchymal stem cells,50898
fen,50898
anal intraepithelial neoplasia,50898
endogenous retroviruses,50898
hypobaric chamber,50898
diphosphine ligand,50898
genetic algorithm,50898
suppositories,50898
soya,50898
epithelia,50898
quorum sensing,50898
malformation,50898
artificial heart,50898
Natural Killer (NK) cells,50898
ABCC6,50898
Fermi level,50898
dibenzofurans,50898
statistical ensemble,50898
anodal,50898
Balmer jump,50898
Strasbourg,50898
convenience sample,50898
CMB,50898
simultaneous equations,50898
methicillin-resistant Staphylococcus aureus (MRSA),50898
isooctane,50898
viral evolution,50898
optical trap,50898
Antimicrobial,50898
springtail,50898
epilepsy surgery,50898
apartheid,50898
file-sharing,50898
interpolation,50898
toxicology,50898
RASSF1,50898
RAND,50898
CMS,50898
CoMo,50898
nuclear localization signals,50898
Multinomial logit,50898
nucleoside analogue,50898
Rodent,50898
sleeping beauties,50898
cultural anthropology,50898
Kantorovich inequality,50898
microbial ecology,50898
partial denture,50898
dynamic infrastructure,50898
phenanthroline,50898
Nature Neuroscience,50898
negative symptoms,50898
gold salts,50898
veto,50898
Continuous Electron Beam Accelerator Facility,50898
xanthine dehydrogenase,50898
Semitic languages,50898
ferromagnet,50898
Bose gases,50898
percentile rank,50898
usage analysis,50898
ontological,50898
fuzzy set,50898
criminal procedure,50898
norbornene,50898
justifiers,50898
hematopoiesis,50898
matrix model,50898
angular momentum coupling,50898
Evros,50898
econometric,50898
pancytopenia,50898
subliminal stimuli,50898
eigenvalue,50898
Bernoulli equation,50898
Normal mode,50898
capillary bridges,50898
supercritical,50898
subcutaneous immunotherapy,50898
sound energy,50898
narcissistic,50898
XRF,50898
Buenos Aires,50898
Sardinia Radio Telescope,50898
specific phobias,50898
serine,50898
public relations,50898
heterogeneous condition,50898
human reproduction,50898
Cobb-Douglas,50898
colorectal surgery,50898
regular solution,50898
Artificial Intelligence,50898
Stepwise regression,50898
sociolinguistics,50898
Fish oil,50898
parser,50898
MCDA,50898
Sagittarius A*,50898
user-uploaded videos,50898
CPSF,50898
vector potential,50898
eigenmodes,50898
Compton Gamma Ray Observatory,50898
Gray,50898
conurbation,50898
Rom,50898
Camtasia,50898
acute phase protein,50898
congenital hypothyroidism,50898
Laboratori Nazionali del Gran Sasso,50898
subgraph,50898
isocyanates,50898
superconductors,50898
chemotaxonomic,50898
echinococcosis,50898
top priority,50898
feminism,50898
3CR,50898
urban area,50898
war crimes,50898
Nicaragua,50898
ribosomal DNA,50898
radiofrequency,50898
Apache,50898
permutation test,50898
KCNH2,50898
amphipods,50898
Simon task,50898
Third World,50898
The practice,50898
fludarabine,50898
paraconsistent,50898
Huanglongbing,50898
virtual actor,50898
Indigirka,50898
chromaticity,50898
water deficits,50898
Percentile,50898
fallopian tube,50898
functional language,50898
ventricular action potential,50898
tetramethylammonium,50898
philosophical anarchist,13982
pillarization,50898
organ transplantation,50898
defender,50898
integral field spectroscopy,50898
intergalactic medium,50898
Picornaviridae,50898
high feature,50898
simplices,50898
pertussis,50898
transcranial magnetic stimulation (TMS),50898
artemisinin-based combination therapy,50898
photovoltaics,50898
photoinduced charge separation,50898
hue,50898
proposition,50898
SNP array,50898
carpal,50898
medically assisted reproduction,50898
real options,50898
AaR,50898
amsterdam,50898
animal welfare,50898
Antoine Faivre,50898
prototype theory,50898
test statistic,50898
hyperbilirubinemia,50898
editors-in-chief,50898
perylene,50898
Barbara Visser,50898
cytokinesis,50898
fine-structure constant,50898
nuclear magnetic resonance,50898
Jewish American,50898
distributed memory,50898
hypercholesterolaemia,50898
humanities,50898
addictive behavior,50898
Response Modulation Hypothesis,50898
growth theory,50898
gamma decay,50898
correlation function,50898
rheumatic diseases,50898
carbon star,50898
greenhouse gases,50898
HIV protease,50898
countable,50898
organochlorine,50898
Exel,50898
adiabatic,50898
eudicots,50898
Burnout,50898
UVES,50898
tularemia,50898
peroxy acids,50898
Poisson process,50898
B-11,50898
reactive arthritis,50898
African-Caribbean,50898
halophilic,50898
Iberia,50898
Type 2 diabetes mellitus,50898
hairy root,50898
podocytes,50898
e-health,50898
nuclear family,50898
chlorobenzenes,50898
supercritical fluid,50898
Nonlinear Dynamics,50898
WADC,14051
Vallesian,50898
sheaves,50898
declarative memory,50898
open government data,50898
imidazol-2-ylidene,50898
SCB,50898
sexual intercourse,50898
succinamide,50898
Poetics Today,50898
optimization methods,50898
Marmara,50898
mixed connective tissue disease,50898
oesophageal adenocarcinoma,50898
genu varum,50898
Belgian,50898
quantum dot,50898
He-3,50898
sightline,50898
discrete wavelet transform,50898
Leiden University Medical Centre,50898
colloidal silica,50898
Gephyrocapsa,50898
Gaussian Process,50898
polynomial time hierarchy,50898
heterogeneous agents,50898
autoregressive conditional heteroskedasticity,50898
dialog system,50898
coevolve,50898
lead zirconate titanate,50898
angioedema,50898
endodontically treated teeth,50898
Seduction Community,50898
Synthese,50898
lumbar puncture,50898
Enteral administration,50898
personality trait,50898
RB1,50898
UML,50898
adenoid,50898
East Prussia,50898
passive continental margin,50898
vincristine,50898
Langerhans cells,50898
social democratisation,50898
sofosbuvir,50898
MFP,50898
virtuality,50898
glycosaminoglycan,50898
mystery,50898
Cochrane Database,50898
Far East,50898
Erasmus,50898
data fusion,50898
Rio de Janeiro,50898
Fourier Analysis,50898
Anophthalmia,50898
sedative,50898
theta band,50898
energy budget,50898
American psychologist,50898
IGF,50898
autism spectrum disorder,50898
DVD,50898
The latency,50898
Boer,50898
hypertriglyceridemia,50898
Wegener,50898
Multiplex Ligation-dependent Probe Amplification,50898
D4 receptor,50898
Reynolds stress,50898
Orientalism,50898
Thlaspi caerulescens,50898
Noah,50898
Haar system,50898
chi-square test,50898
Ulysses,50898
ambidextrous,50898
Ritonavir,50898
M dwarf,50898
proprotein convertase,50898
reduced folate carrier,50898
cognitive-behavior therapy,50898
endocrinopathy,50898
Water balance,50898
oxazoline,50898
time-of-flight mass spectrometry,50898
Regge calculus,50898
brefeldin A,50898
MMP2,50898
diphenylmethane,50898
functional response,50898
biomimetic,50898
selective reduction,50898
antihypertensive medication,50898
British Mycological Society,50898
Red giant,50898
tween,50898
intrauterine device,50898
c-myc,50898
JAA,50898
strain partitioning,50898
BPI,50898
Cyclin A,50898
coronary angiogram,50898
Tibolone,50898
National Eye Institute,50898
lymphoid tissue,50898
Neogene Period,50898
animal sacrifice,50898
triethylamine,50898
liquid culture,50898
shrew,50898
IL-33,50898
Hydrocortisone,50898
goosefoot,50898
Ischemic preconditioning,50898
BUN,50898
tamponade,50898
DH.,50898
myoinositol,50898
founder effects,50898
vanillin,50898
octene,50898
e20,50898
Laparotomy,50898
efferent,50898
cell culture assay,50898
ASC-US,50898
reference software,50898
tibialis anterior muscle,50898
Schering-Plough,50898
CD13,50898
rate-determining step,50898
helminths,50898
bone remodeling,50898
load testing,50898
adsorbent,50898
Polymerase chain reaction,50898
SNAP25,50898
callus,50898
ammonification,50898
diachronous,50898
interstadial,50898
oesophagus,50898
Mass transfer,50898
stealth,50898
particulate matter,50898
genistein,50898
myoblasts,50898
Il10,50898
supraoptic nucleus,50898
small nuclear ribonucleoproteins,50898
indinavir,50898
sponge,50898
Cesarean delivery,50898
Psychotria,50898
2-step,50898
bispecific antibody,50898
Atrazine,50898
pathobiological,50898
alpha emission,50898
aeolian processes,50898
Hepatology,50898
Working Memory,50898
arrhythmia,50898
smelter,50898
histones,50898
Hypoglycaemia,50898
BQ-123,50898
rape seed,50898
felsic,50898
Sud,50898
nucleus accumbens core,50898
SPD,50898
plasmalogen,50898
Scanning electron microscopy,50898
goldfish,50898
FASEB J.,50898
equol,50898
megadrought,50898
tooth loss,50898
proto-oncogene,50898
Ribose,50898
Furth,50898
ApoA,50898
ectodomain shedding,50898
XCR1,50898
Adiponectin,50898
Ogg,50898
iduronidase,50898
Isomerization,50898
pharmaceutical,50898
tricyclic antidepressants,50898
thenar muscle,50898
MRPL,50898
cardia,50898
vasorelaxation,50898
phenylacetaldehyde,50898
Swiss,50898
etravirine,50898
synthetic lethality,50898
gulley,50898
Wild type,50898
lipolytic,50898
LPS.,50898
nucleotide analogues,50898
parvalbumin,50898
incisor,50898
semilunar valves,50898
Excimer,50898
ionotropic glutamate receptor,50898
NNI,50898
olfactory tubercle,50898
Protium,50898
RHCE,50898
nucleus basalis,50898
Serine,50898
electron capture,50898
Crown copyright,50898
LIX,50898
subarctic,50898
B-vitamins,50898
furazolidone,50898
lamellar,50898
H89,50898
Creatinine,50898
Cette,50898
pyrimidine biosynthesis,50898
octane number,50898
cornified layer,50898
U3,50898
Gedeon Richter,50898
magma chamber,50898
trace metal,50898
proteoglycan,50898
transdifferentiation,50898
fetal distress,50898
Magnetic susceptibility,50898
Caryocar,50898
blood clot,50898
Xenopus laevis,50898
deiodinated,50898
Cambridge Univ.,50898
opioid overdose,50898
endothelial NOS,50898
annealing,50898
switched network,50898
transmethylation,50898
bone density,50898
gamma-glutamyl carboxylase,50898
compound muscle action potential,50898
shoshonitic,50898
Rho GTPases,50898
triploid,50898
SQL,50898
holobiont,50898
antecedent,50898
biomolecule,50898
gauche,50898
Congestive heart failure,50898
glycocalyx,50898
flue gas,50898
LRP6,50898
Sulfonation,50898
Ciclosporin,50898
Meynert,50898
Molasse,50898
nitrofurazone,50898
neoplastic transformation,50898
Evoked potential,50898
single-domain antibody,50898
bronchi,50898
hypermetabolism,50898
Enalapril,50898
Probiotic,50898
Chinese hamster ovary cell,50898
High blood pressure,50898
Apuseni Mountains,50898
light chains,50898
rilpivirine,50898
template strand,50898
BMP,50898
chondrogenic differentiation,50898
catfish,50898
antiangiogenic,50898
26 men,50898
fluxional,50898
hardness,50898
Sr-87,50898
sweet pepper,50898
beta-thromboglobulin,50898
Patient recruitment,50898
prebiotics,50898
QTc prolongation,50898
cloxacillin,50898
Caspase 3,50898
NKL,50898
Mars,50898
platelet-activating factor receptor,50898
hirudin,50898
transmembrane protein,50898
P25,50898
cAMP-dependent protein kinase,50898
Koch,50898
soy,50898
Atrophy,50898
CLA,50898
aziridination,50898
thromboprophylaxis,50898
transformer,50898
hepatic lipase,50898
Triamterene,50898
plantar warts,50898
histamine receptor,50898
"1, 2, 3, 4",50898
structure-activity relationship,50898
caprine,50898
macronutrients,50898
endophthalmitis,50898
cholestatic,50898
Desmopressin,50898
apical membrane,50898
peptidase,50898
partial melting,50898
feldspar,50898
hypogammaglobulinemia,50898
direct injection,50898
radiolabel,50898
organomegaly,50898
Namurian,50898
FICE,50898
lipocalin,50898
Superior,50898
Sr-86,50898
BALF.,50898
Rho kinase inhibitor,50898
phospholipid transfer protein,50898
Brock,50898
rac1,50898
SKL,50898
tissue factor pathway,50898
trioxide,50898
Enoxaparin,50898
MICA,50898
hydroxyproline,50898
mass phenotype,50898
peritoneal mesothelioma,50898
Hyperglycaemia,50898
ECC.,50898
CD146,50898
le marche,50898
AKT1,50898
RYR2,50898
apamin,50898
two-hit model,50898
high throughput screening,50898
photoreduction,50898
enantiomer,50898
Warburg,50898
volcanic ash,50898
discrete distribution,50898
Fas/FasL,50898
MEP,50898
aglycone,50898
darunavir,50898
gas exchange,50898
Y27632,50898
DET,50898
hypovolemia,50898
itching,50898
formalin,50898
oesophageal cancer,50898
epoxide reductase,50898
nephrotoxic,50898
IL-23p19,50898
budding yeast,50898
SSL,50898
Phosphorylation,50898
acute seizures,50898
subcontinental lithospheric mantle,50898
CD4+ T lymphocytes,50898
rodent studies,50898
bathymetry,50898
cell permeability,50898
homeostatic model assessment,50898
neuropathogenesis,50898
carboxy-terminus,50898
c-Jun N-terminal kinase,50898
lumbrical muscle,50898
Uridine,50898
GPO,50898
Electrocautery,50898
Leigh,50898
RANTES,50898
amniotic fluid,50898
carboxylase,50898
Diabetes mellitus,50898
intramembrane,50898
GD.,50898
Anat,50898
asthenospheric mantle,50898
Andrew,50898
haem,50898
AAC,50898
kidney function,50898
calibrated age,50898
premalignant lesions,50898
diastolic heart failure,50898
alkalosis,50898
vasoconstrictive,50898
hydrological cycle,50898
Pemetrexed,50898
hypotonia,50898
luciferase,50898
Fair Trade,50898
Arsenite,50898
thyroid cancer,50898
occludin,50898
Dermatology,50898
Bunnik,50898
chelator,50898
H-5,50898
strike-slip tectonics,50898
Euterpe,50898
SERT,50898
standardized coefficient,50898
nestin,50898
nitrogen-fixing,50898
TRIAL REGISTRATION,50898
aller,50898
lens power,50898
haemostatic,50898
FRCP,50898
cobicistat,50898
formyl,50898
mayor,50898
bone turnover,50898
convective precipitation,50898
pteropod,50898
UDP-glucuronosyltransferase,50898
ribonucleotide,50898
Excerpta Medica,50898
Amoxicillin,50898
prostaglandins,50898
dyspnoea,50898
Bayesian inference,50898
Eindhoven,50898
digital humanities,50898
Orchesella,50898
Norway rat,50898
MMP-1,50898
gangrene,50898
dune,50898
Wnt signaling,50898
esophageal motility disorders,50898
thoracoplasty,50898
Medline,50898
Scalability,50898
pharmacopoeia,50898
Budesonide,50898
Folsomia candida,50898
Hawking radiation,50898
Insulin resistance,50898
sural nerve,50898
prenatal test,50898
error detection,50898
castellum,50898
hepatotoxic,50898
Compositae,50898
knitting,50898
alpha-helix,50898
Hypokalaemia,50898
elliptical,50898
bacteriochlorophyll,50898
ferrofluid,50898
Research design,50898
reactive nitrogen species,50898
Conduct Disorder,50898
Dutch people,50898
immunoglobulin E,50898
Liquid chromatography-mass spectrometry,50898
molecular sieves,50898
Ingersoll,50898
sound pressure level,50898
A la recherche du temps perdu,50898
Ethernet,50898
incomplete markets,50898
factor 5,50898
crisis management,50898
Lactuca sativa,50898
transcranial direct current stimulation,50898
traumatic brain injury (TBI),50898
ambient pressure,50898
divergent thinking,50898
bootstrapping,50898
genetic marker,50898
gender role,50898
electromyogram,50898
discrimination test,50898
numerical weather prediction,50898
gerund,50898
frustules,50898
transition metal,50898
black-tailed godwit,50898
peripheral neuropathy,50898
cytopathological,50898
Descriptive statistics,50898
supinated,50898
nitride,50898
Paliyan,50898
hierarchical clustering,50898
stainless steel,50898
Drude,50898
hydrodealkylation,50898
Absidia corymbifera,50898
MR-compatible,50898
metazoan,50898
sugary drink,50898
people express,50898
maxilla,50898
Psyllidae,50898
Monoamine Oxidase A,50898
Amblyseius andersoni,50898
figure-ground,50898
catastrophizing,50898
zeolitic imidazolate frameworks,50898
orphan disease,50898
intuitionistic,50898
enumerative geometry,50898
zeolitic imidazolate framework,50898
EIF2B1,50898
acne,50898
Health Concern,50898
single point mutations,50898
life-table,50898
mental retardation,50898
cochlear nucleus,50898
Gastritis,50898
radix,50898
forced vital capacity,50898
metacarpal,50898
hypervigilance,50898
European Medicines Agency,50898
oxidation/reduction,50898
Bayesian belief network,50898
music therapy,50898
model selection,50898
South America,50898
Leclerc,50898
land grabbing,50898
fecal occult blood test,50898
functor,50898
Exponential decay,50898
paraffin oil,50898
amicyanin,50898
polyhedral,50898
spermatogonial stem cells,50898
HARPS,50898
Impact Factor,50898
Pittsburgh,50898
enterovirus,50898
alphas,50898
principal components analysis,50898
SLN,50898
government debt,50898
Kali,50898
privatization,50898
dibenzo-p-dioxin,50898
insulin glargine,50898
face validity,50898
tyrosine kinase inhibitor,50898
fair trade,50898
electric quadrupole,50898
qualitative comparative analysis,50898
coevolution,50898
SOA,50898
female infertility,50898
regional Mexican,50898
diagnostic microbiology,50898
migraine headache,50898
Metastasis,50898
transmural care,50898
Econometrica,50898
Sumatran orangutan,50898
relational database,50898
immunofluorescence assay,50898
enol,50898
query complexity,50898
midwifery,50898
lesser curvature,50898
defiance,50898
human leukocyte antigen (HLA),50898
benzylidene,50898
inverse scattering,50898
electrical resistivity,50898
heterotic string,50898
parenchymatic,50898
electric charge,50898
triiodothyronine,50898
Swift satellite,50898
11-OH-THC,50898
Vela X-1,50898
superparamagnetic,50898
renormalisation,50898
dam,50898
Kazaa,50898
TNM stage,50898
Scott,50898
anceps,50898
stereo vision,50898
alternating sum,50898
arbuscular mycorrhizal fungi (AMF),50898
mineralocorticoid,50898
Atlantic Ocean,50898
J Med,50898
Azores,50898
thoracic surgery,50898
Mallinckrodt,50898
capillary wave,50898
SSVEP,50898
surface-enhanced laser desorption/ionization,50898
JDRF,50898
health professional,50898
beta-galactosidase,50898
High Accuracy Radial velocity Planet Searcher,50898
unit root,50898
scenario analysis,50898
papillary muscle,50898
eukaryotic initiation factor,50898
intradermal injection,50898
national income,50898
constitutionalism,50898
connective tissue disease,50898
trichomoniasis,50898
gastrointestinal surgery,50898
Amblyseius herbicolus,50898
chemical class,50898
Thrombocytopenia,50898
polyneuropathy,50898
elemental analyses,50898
ectopic expression,50898
microsatellite instability,50898
Frontex,50898
experimental forest,50898
peripheral arterial disease,50898
genome-wide linkage study,50898
Pretest,50898
Soft drink,50898
zygote,50898
oxygen therapy,50898
XTC,50898
C2H4,50898
Henneman,50898
interferon beta,50898
behavioral activation,50898
cognitive model,50898
GE,50898
multimodal therapy,50898
paleoclimatology,50898
WT1,50898
neurotrophic,50898
Satisfaction theory,50898
heat flux,50898
attention seeking,50898
sputum culture,50898
etic,50898
clozapine,50898
Continuous wave,50898
scale parameter,50898
key stage 3,50898
2009 European Parliamentary elections,50898
craniotomy,50898
diamagnetic,50898
Tryptophan,50898
T-bills,50898
high anion gap metabolic acidosis,50898
The molecules,50898
femoral shaft,50898
lateralized readiness potential,50898
transgender women,50898
tannakian category,50898
two-photon absorption (TPA),50898
niobium oxide,50898
transferable utility,50898
linear polarization,50898
paresis,50898
labelled transition system,50898
active transport,50898
MAXI,50898
constructivism,50898
subgroup analyses,50898
MRI scanner,50898
quinolizidine,50898
fusion inhibitor,50898
Einstein,50898
WFME,50898
differential diagnoses,50898
microscopic polyarteritis,50898
M&M,50898
major depressive episodes,50898
Food allergy,50898
deep sequencing,50898
light-emitting diode,50898
linagliptin,50898
lock,50898
SOs,50898
unit ball,50898
3-oxoacyl-CoA,50898
computer science,50898
Get Up,50898
great speaker,50898
Physalis,50898
diagnostic method,50898
plantar flexion,50898
radiative recombination,50898
surjective,50898
Usability,50898
kinesthetic,50898
amiodarone,50898
Chandra X-Ray Observatory,50898
concatenation,50898
cross-sectional analysis,50898
visual area V4,50898
Lesotho,50898
Texel,50898
New Order,50898
WIMP,50898
imidazoline,50898
gynaecology,50898
Jy,50898
linguistic validation,50898
simplicial complex,50898
atomic force microscopy,50898
Support Vector Machine,50898
employee engagement,50898
Canadian Stroke Network,50898
geodesic,50898
Frankliniella occidentalis,50898
molecular imaging,50898
transvaginal ultrasonography,50898
Maliarpha,50898
benign prostatic hyperplasia,50898
presumed consent,50898
reproductive health,50898
Fermi-Dirac distribution,50898
completeness properties,50898
infection control,50898
parallel computer,50898
palm oil,50898
human resource management,50898
Coronary arteries,50898
Thrombophilia,50898
compact set,50898
electron mass,50898
Moabit,50898
Acinetobacter calcoaceticus,50898
semantic analysis,50898
MSCI,50898
phase shift,50898
Granzyme A,50898
co-catalyst,50898
stochastic programming,50898
clonal evolution,50898
Primary data,50898
small interfering RNA,50898
brain injury,50898
homogeneous catalyst,50898
Lapatinib,50898
cancer survivorship,50898
plasmon resonance,50898
adenomatous polyps,50898
Asymptotic Giant Branch,50898
Serbs,50898
Nationwide,50898
CCD camera,50898
ON2,50898
antifolate,50898
physiatrists,50898
chenopod,50898
micellar,50898
one-shot,50898
S12,50898
quo,50898
galactic center,50898
Breda,50898
Seismology,50898
polycyclic aromatic hydrocarbons,50898
fixed cost,50898
swaptions,50898
nanocages,50898
farnesoid X receptor,50898
trinitrobenzene,50898
Chroomonas,50898
religious studies,50898
parameningeal,50898
adverse selection,50898
cell physiology,50898
Epson,50898
positive definite matrices,50898
QuantiFERON,50898
bony,50898
physical therapist,50898
central charge,50898
adiabatically,50898
Czochralski technique,50898
clone library,50898
computerized adaptive testing,50898
two-dimensional electron gas,50898
partial order,50898
ESO 3.6,50898
manure,50898
gravitational anomaly,50898
resonant inelastic x-ray scattering,50898
endogenous variable,50898
immune privilege,50898
multilevel model,50898
bipolar cells,50898
perfect competition,50898
phosphorescence,50898
aminopeptidase,50898
elliptical galaxies,50898
soft-sediment deformation structures,50898
Hungary,50898
subdistrict,50898
knee extensors,50898
Madrid,50898
pulmonary vascular resistance,50898
ontology,50898
pulmonary vein,50898
sex pheromone,50898
Baconian theory,50898
fundus,50898
propositional formula,50898
antemortem,50898
narrative identity,50898
lactone,50898
spherical cap,50898
beta-glucosidase,50898
phimosis,50898
pitfall,50898
image segmentation,50898
cue validity,50898
particle-size distribution,50898
pesticide resistance,50898
reflexivity,50898
attrition bias,50898
iterative reconstruction,50898
Emergency department,50898
transfer function,50898
metropolitan area,50898
immersive video,50898
sexual objectification,50898
Zeeland,50898
masculinity,50898
immunosuppressor,50898
netherlands,50898
blood-brain barrier,50898
azurin,50898
glycolipid,50898
ankylosis,50898
standing wave,50898
Paul trap,50898
glucocerebrosidase,50898
proctoscope,50898
22 gauge,50898
volatile anaesthetic,50898
imidazolium,50898
fall arrest,50898
vertices,50898
cognitive behavior therapy,50898
thenar,50898
MAGELLAN,50898
Functional Independence Measure,50898
revolutionary,50898
Complement deficiency,50898
retinal ganglion cell,50898
brisk,50898
palpebral fissures,50898
Hierarchical clustering,50898
neonatal intensive care unit,50898
canted,50898
PC12 cells,50898
The injury,50898
Lagrangian relaxation,50898
magnetocrystalline anisotropy,50898
semicarbazide,50898
4-D,50898
oseltamivir,50898
judiciary,50898
NVivo,50898
gauge theories,50898
macrocephaly,50898
eclogitic,50898
active learning,50898
Boussinesq,50898
Emotion,50898
Polish,50898
DPD deficiency,50898
calcium-binding protein,50898
linearly dependent,50898
interpreter,50898
structural adjustment,50898
DQA1*0501,50898
exploratory factor analysis,50898
discrete-time,50898
inert gas,50898
plant secondary metabolism,50898
GBP,50898
cathodoluminescence,50898
Northeastern Brazil,50898
Green Bank,50898
tau lepton,50898
San Francisco,50898
uncountable,50898
GW151226,50898
Pesanggrahan,50898
hematology,50898
Metaphor,50898
CSR,50898
isotropic model,50898
physicist,50898
vowel,50898
gravitational field,50898
calorimetry,50898
hypermedia,50898
mathematical expectation,50898
photoemission,50898
folate receptor,50898
MC4,50898
pear,50898
T junction,50898
adrenocortical insufficiency,50898
wave propagation,50898
biological sequence,50898
glass ionomer cement,50898
Eurosceptic,50898
imiglucerase,50898
left anterior descending artery,50898
Altaic,50898
Special Education,50898
cross-sectional data,50898
angular speed,50898
PROM,50898
Gammarus,50898
Dutch GP,50898
multicenter trial,50898
Picidae,50898
electrokinetic,50898
debris flow,50898
Araracuara,50898
prokinetic,50898
pentamidine,50898
capital breeder,50898
heat capacity,50898
Bogota,50898
renal transplant,50898
computer mouse,50898
Antidepressant,50898
file sharing,50898
atherosclerotic plaque,50898
Ukraine,50898
akinesia,50898
cornea,50898
Goffman,50898
Woudrichem,50898
parthenogenesis,50898
uridylyltransferase,50898
materials science,50898
Brouwer,50898
mimicry,50898
CDB,50898
critical success factor,50898
damselfly,50898
High Energy Stereoscopic System,50898
continuous ambulatory peritoneal dialysis,50898
Zulu,50898
TrA,50898
nucleophilic substitution,50898
hemiarthroplasty,50898
A. lumbricoides,50898
On time,50898
image retrieval,50898
kbar,50898
Neuron,50898
System theory,50898
conductive hearing loss,50898
financial reporting,50898
expected utility,50898
Carl Stumpf,50898
cyclic citrullinated peptide,50898
xenobiotic,50898
channel D,50898
liquid helium,50898
Asteroseismic,50898
human leucocyte antigen,50898
adenoviruses,50898
muscle pain,50898
spacecraft,50898
extensionality,50898
telangiectasias,50898
Autoimmunity,50898
subterranean termites,50898
alopecia,50898
Artificial Neural Networks,50898
local field potentials,50898
Korle Bu,50898
VU University,50898
Longitudinal data,50898
httpd,50898
dioxins (PCDDs),50898
language shift,50898
cohomology,50898
Participatory Ergonomics,50898
latent semantic analysis,50898
monocots,50898
logit regression,50898
C-14 dating,50898
cerebral lateralization,50898
Calcium phosphate,50898
circumstellar envelope,50898
lightlike,50898
supplementary motor area,50898
Control Theory,50898
incomplete penetrance,50898
anticonvulsants,50898
Draize test,50898
serotonin receptor,50898
supine position,50898
Maastricht,50898
The proper time,50898
scenario testing,50898
webcam,50898
secondary succession,50898
thoracoscopy,50898
Geneva,50898
FCC lattice,50898
Ixodes,50898
rod-shaped,50898
lightcurve,50898
Euclidean,50898
caudate nucleus,50898
antisocial behavior,50898
forklift,50898
kth,50898
pedunculate oak,50898
Ridder,50898
Nevin,50898
semi-synthetic,50898
Friedel-Crafts reaction,50898
Catholic-Jewish Relations,50898
silanol,50898
repetitive transcranial magnetic stimulation,50898
Thrombomodulin,50898
wisdom tooth,50898
subgiant,50898
purple bacteria,50898
magnetic resonance angiography,50898
Workflow,50898
fibrin glue,50898
epideictic,50898
autocorrelation function,50898
seismic reflection,50898
FDP,50898
GPS tracking,50898
Curie temperature,50898
hemidesmosome,50898
variational formulation,50898
fig,50898
S 4,50898
Amazonas,50898
tropane,50898
shallow lake,50898
palynology,50898
ethical culture,50898
anti-authoritarian,50898
superspace,50898
Atacicept,50898
procarbazine,50898
interbeat interval,50898
Gordon,50898
CBs,50898
Crusades,50898
plug-in,50898
malignant pleural effusion,50898
salience network,50898
"San Francisco, California",50898
travel clinic,50898
political consumerism,50898
HiCIAO,50898
lung volumes,50898
camouflage,50898
introitus,50898
soliton,50898
spiral galaxies,50898
peroxy,50898
content delivery network,50898
Construct validity,50898
lactide,50898
V-2,50898
pharyngeal constrictor,50898
GRO J1655-40,50898
smartphone,50898
hemorrhoids,50898
tyrosine kinase inhibitors,50898
IDE,50898
allene,50898
Ho Chi Minh,50898
child labor,50898
carboxylation,50898
extensor carpi,50898
genitive,50898
Phytoseiulus,50898
Dyspnea,50898
dabigatran etexilate,50898
oropharyngeal,50898
primary care physician,50898
right-libertarian,50898
European Community,50898
colobomata,50898
gender inequality,50898
interphalangeal joints,50898
risk measure,50898
bird flu,50898
carbon offset,50898
Opportunity,50898
sodium channel,50898
Post hoc analysis,50898
optic disc,50898
Vrancea zone,50898
PRC1,50898
Korteweg-de Vries equation,50898
attenuation coefficient,50898
organic mental disorders,50898
spastic cerebral palsy,50898
cow,50898
Galton-Watson process,50898
Very Long Baseline Array,50898
Prime Minister,50898
Exelon,50898
Georgetown,50898
Chennai,50898
cholangiocarcinoma,50898
Rif,50898
attending physician,50898
The root,50898
similarity measure,50898
shape parameter,50898
Swets,50898
PMDB,50898
azobenzene,50898
toothbrush,50898
primary amine,50898
Fusarium oxysporum,50898
Nimbus-7,50898
interferon gamma,50898
Roche-lobe,50898
vigilantism,50898
rheumatology,50898
circumtropical,50898
feed additive,50898
environmental enrichment,50898
Hong Kong,50898
psychomotor retardation,50898
continuous delivery,50898
EUROCAT,50898
ImageNet,50898
divestment,50898
PowerEdge,50898
flight behavior,50898
Colony-Stimulating Factor,50898
Belarus,50898
K-wire,50898
RDS,50898
vernix caseosa,50898
cobblestone,50898
spectroscopic analysis,50898
LATS,50898
undecided,50898
spinal cord stimulator,50898
pyruvate dehydrogenase,50898
biogeochemical,50898
erotic film,50898
naive T cell,50898
finfish,50898
Acute toxicity,50898
tryptone,50898
fecal incontinence,50898
damage-associated molecular patterns,50898
coronavirus,50898
wh-questions,50898
2 times,50898
Mycobacterium avium,50898
atherothrombosis,50898
path integral,50898
closed geodesic,50898
noetherian,50898
tetrahydroisoquinoline,50898
aridification,50898
logit model,50898
dub,50898
irreversibility,50898
Trichodesmium,50898
ball joint,50898
triathlon,50898
Solar neighborhood,50898
irradiance,50898
percutaneous transluminal coronary angioplasty,50898
Bioluminescence,50898
TCA cycle,50898
vocal cord paralysis,50898
CH3OH,50898
macropinocytosis,50898
renal tubular,50898
PLoS Comput Biol,50898
dolutegravir,50898
plate tectonics,50898
neuromuscular junction,50898
Maurits,50898
Welt,50898
ozone,50898
Underplating,50898
urokinase,50898
picotamide,50898
PH1,50898
subarachnoid space,50898
continental crust,50898
stereogenic,50898
left ventricular diastolic function,50898
Lancaster,50898
chloride channel,50898
Alluvium,50898
colposcope,50898
SNF4,50898
amantadine,50898
macrovascular disease,50898
fecal occult blood,50898
The medium,50898
elvitegravir,50898
S-5,50898
nonlinear control,50898
anaphylactic reaction,50898
AUC values,50898
cyclo-oxygenase,50898
auch,50898
B. subtilis,50898
Sufentanil,50898
complement membrane attack complex,50898
intracranial pressure,50898
Drug safety,50898
dysphonia,50898
Baffin Island,50898
esterification,50898
aus,50898
Royal Free Hospital,50898
Clinical trial,50898
prostaglandin E,50898
raltegravir,50898
CAT3,50898
trypsin,50898
crosstalk,50898
imminent risk,50898
ploidy,50898
proximal tubule,50898
MP,50898
p27Kip1,50898
desmopressin,50898
Wiley Company,50898
Jens Volkmann,50898
metabolic pathway,50898
kidney disease,50898
porosity,50898
FIRST,50898
Devon Island,50898
Erlotinib,50898
die Burger,50898
ESPRIT,50898
germinal center,50898
pressor response,50898
monoaminergic,50898
AMP-activated protein kinase,50898
dehydroxylation,50898
digestive tract,50898
Aortic regurgitation,50898
lysosomal storage diseases,50898
phagocyte,50898
visual impairment,50898
Fractional crystallization,50898
Calcification,50898
nelfinavir,50898
rangen,50898
fentanyl,50898
Baffin Bay,50898
interactomics,50898
paracentesis,50898
diamine oxidase,50898
Transfection,50898
LHD,50898
Pathological Society,50898
glycogen synthase kinase 3,50898
DME,50898
Anabaena,50898
glycogen,50898
acid-base homeostasis,50898
serum amyloid A,50898
flexural rigidity,50898
saquinavir,50898
GSK-3,50898
isoprenoid,50898
waren,50898
renal pathology,50898
sulfonate,50898
Linken,50898
astroglia,50898
paradigma,50898
fosamprenavir,50898
phylum,50898
Mediterranean region,50898
Laar,50898
S-4,50898
British Epilepsy Association,50898
tipranavir,50898
neuromuscular blockade,50898
Initial D,50898
epoch,50898
Responsivity,50898
type IIB string,50898
geese,50898
buthionine sulfoximine,50898
mJ,50898
MYB,50898
Schenk,50898
land-use planning,50898
transesophageal echocardiography,50898
asymptotic expansion,50898
Gluteus medius muscle,50898
HTSC,50898
block design,50898
kinins,50898
gravitational lensing,50898
Subaru Telescope,50898
Garcia de Orta,50898
subcooled,50898
fluoresce,50898
transfer factor,50898
Rodenstock,50898
Paleozoic,50898
tropical rain forest,50898
sulfasalazine,50898
Enterococcus,50898
likelihood functions,50898
Rayleigh scattering,50898
Barthel Index,50898
ML,50898
moral disengagement,50898
emergent properties,50898
isoniazid,50898
primary cilium,50898
7th Amendment,50898
QIC,50898
Mycobacterium xenopi,50898
Peruvian Spanish,50898
fluorotelomer,50898
Apatite,50898
Aspergillus niger,50898
rTMS,50898
internal medicine,50898
polymeric immunoglobulin receptor,50898
Campylobacter jejuni,50898
Chudakov,50898
mesoporous,50898
diaspora,50898
prolapse,50898
friction coefficient,50898
entropic force,50898
Future Microbiology,50898
Rhodnius prolixus,50898
nanotechnological,50898
Hopf,50898
shot noise,50898
Colombia,50898
Biometrika,50898
English language,50898
renal replacement therapy,50898
vulnerability assessment,50898
paraneoplastic,50898
single-photon emission computed tomography (SPECT),50898
Repeatability,50898
Tonga,50898
common carotid artery,50898
diaphragm,50898
internal standard,50898
nonylphenol,50898
diabetic macular edema,50898
RNASEH2B,50898
magneto-optical,50898
Bioinformatics,50898
feminization,50898
quality score,50898
smoke inhalation,50898
PDP,50898
TLR-4,50898
epistemological,50898
single nucleotide polymorphism,50898
Gampaha District,50898
Kiez,50898
cytotoxic T lymphocyte,50898
axillary lymph node,50898
Galactic ridge,50898
fertility clinic,50898
friable,50898
ring laser,50898
activated carbon,50898
nematic,50898
mesophyll,50898
venous thrombus,50898
solvatochromic,50898
enteropathy-associated T-cell lymphoma,50898
clique,50898
monocular,50898
metal complex,50898
Epac1,50898
monotonicity,50898
F8V,50898
antimicrobial stewardship,50898
Climateprediction.net,50898
North-East Atlantic,50898
stoma,50898
force platform,50898
Environmental technology,50898
chitosan,50898
malacia,50898
Vening-Meinesz,50898
recession,50898
Ragonot,50898
hedonism,50898
tobacco smoking,50898
quadrupole,50898
spastic diplegia,50898
S-waves,50898
galanin,50898
scatterplot,50898
Vasodilator,50898
genitourinary,50898
instrumental variables,50898
glucosinolate,50898
sanidine,50898
orbitofrontal,50898
amputation,50898
synapomorphic,50898
dermcidin,50898
SPECT scan,50898
Ugi reaction,50898
gravitational-wave,50898
thin-layer chromatography,50898
oppositional defiant disorder,50898
egomotion,50898
Perceived Stress Scale,50898
solid-phase extraction,50898
One Health,50898
Diptera,50898
erythrocyte deformability,50898
pelagic,50898
The features,50898
immune-mediated inflammatory diseases,50898
Belmont,50898
denture,50898
Pauli principle,50898
basophils,50898
Melbourne,50898
finite-difference,50898
wheezing,50898
weightlessness,50898
Parsytec,50898
mainland Southeast Asia,50898
grade retention,50898
intercondylar notch,50898
acute myelocytic leukemia,50898
pegylated,50898
CINAHL,50898
TRMM,50898
conglomeratic,50898
CCL7,50898
Gibbs free energy,50898
Calopteryx,50898
5 girls,50898
CODATA,50898
acquired immunodeficiency syndrome,50898
dative,50898
Body Mass Index,50898
archwire,50898
consanguineous,50898
Split,50898
gravitational radiation,50898
time-dependent density functional theory,50898
red supergiant,50898
Liverpool Telescope,50898
interferometrically,50898
Triozidae,50898
Chalcone synthase,50898
Lagoa dos Patos,50898
hypermutation,50898
DZmm,50898
Neoseiulus,50898
financial services,50898
eclipsing binaries,50898
prosthetic group,50898
secretin receptor,50898
thermocouple,50898
Pancreas,50898
orthopaedics,50898
carazolol,50898
nginx,50898
albedo,50898
Cytoskeleton,50898
t distribution,50898
McMaster,50898
Thai Red Cross,50898
familial hypercholesterolaemia,50898
sachet,50898
clinical chemistry,50898
free-free emission,50898
radiograph,50898
cytostatic,50898
SCET,50898
Brownian motion,50898
ppmv,50898
prenatal testing,50898
Vignette,50898
C4b,50898
togetherness,50898
HAT-P-7b,50898
Esophageal atresia,50898
Accelerator Mass Spectrometry,50898
musical key,50898
scums,50898
congenital malformations,50898
Heinrich Hoffmann,50898
myosin heavy chain,50898
one-loop order,50898
scalability,50898
Wisconsin,50898
organohalogen,50898
magneto,50898
logMAR,50898
Arctica islandica,50898
psychophysics,50898
[1a,50898
radial basis,50898
FEBS,50898
Temperature control,50898
self-realization,50898
reporting bias,50898
alanine aminopeptidase,50898
echovirus,50898
likelihood ratio test,50898
Accra,50898
thiopurine S-methyltransferase,50898
affine transformation,50898
Banach,50898
CD22,50898
Limpopo Province,50898
ten 2,50898
small-bodied newts,50898
pyramidalization,50898
Salmo trutta,50898
autocatalytic,50898
toxicokinetic,50898
Socioeconomic status,50898
gross domestic product (GDP),50898
hermaphroditic,50898
breast development,50898
UN headquarters,50898
1 V3,50898
heat treatment,50898
acute respiratory distress syndrome,50898
Decision-making,50898
sea level change,50898
self-concept,50898
green card,50898
Transducer,50898
isethionate,50898
spin-lattice relaxation,50898
clumping factor,50898
Doppler techniques,50898
voriconazole,50898
Carvedilol,50898
CDKN2A,50898
Technetium-99m,50898
property law,50898
neurological disorder,50898
parainfluenza virus,50898
semileptonic decay,50898
microsurgery,50898
serine protease inhibitor,50898
p35,50898
intellectual property,50898
Erzincan,50898
Migraine,50898
Extroversion,50898
Social support,50898
phosphoantigen,50898
Soviet Union,50898
vector autoregression,50898
Thlaspi arvense,50898
anophthalmia,50898
Hollywood,50898
beta-lactoglobulin,50898
Don't Panic,50898
Neuropsychiatry,50898
marginal cost,50898
natalizumab,50898
imperforate anus,50898
maxillae,50898
megaloblastic anaemia,50898
anabolic,50898
aquatic ecosystem,50898
Caldono,50898
Terneuzen,50898
Kosterlitz-Thouless transition,50898
Nottingham Health Profile,50898
polychlorinated dibenzofuran,50898
volume form,50898
fractional flow reserve,50898
hemizygous,50898
picoline,50898
copy number variation (CNV),50898
argon plasma coagulation,50898
PEG,50898
poultry,50898
urinary retention,50898
ptosis,50898
DAMPs,50898
LTP,50898
tennis,50898
Knightian uncertainty,50898
solar mass,50898
tibia,50898
Antirrhinum,50898
CPMD,50898
cholinergic anti-inflammatory pathway,50898
mesoporous silica,50898
morphometric,50898
furan,50898
acetamide,50898
Millennium Ecosystem Assessment,50898
American Psychiatric Association,50898
sympatric,50898
RNA-binding protein,50898
magnetic dipole moment,50898
melanotic macules,50898
representative democracy,50898
poly(methacrylic acid),50898
anthropometry,50898
consumption smoothing,50898
Terra satellite,50898
cyclotide,50898
pseudo-inverse,50898
DECAF,50898
Metabolic Control Analysis,50898
body force,50898
NO2,50898
Electrocardiographic,50898
Iberian peninsula,50898
stapes,50898
Debye,50898
subjective probabilities,50898
lipoarabinomannan,50898
loanword,50898
sentiment analysis,50898
sphincterotomy,50898
imide,50898
open-label trial,50898
triangular distribution,50898
Gentiana,50898
Mefloquine,50898
filaggrin,50898
cardiotoxicity,50898
Rabi frequency,50898
norepinephrine transporter,50898
energy level,50898
biopsychosocial,50898
QED,50898
B antigen,50898
exotesta,50898
Cluster randomised controlled trial,50898
zooxanthellae,50898
deep-vein thrombosis,50898
functional polymers,50898
electronic dance music,50898
myelopathy,50898
self-levelling,50898
thymidine kinase 1,50898
sonoporation,50898
integration contour,50898
hyperglycemic,50898
Dutch hospital,50898
Canadian Cardiovascular Society,50898
Hebbian learning,50898
field cancerization,50898
embryonic stem cells,50898
Sri Lanka,50898
human evolution,50898
calretinin,50898
isotope-ratio mass spectrometry,50898
condylomata acuminata,50898
The independent,50898
gentile,50898
Norfolk,50898
Red blood cell,50898
x-ray absorption,50898
glacial period,50898
axiom,50898
Y-3,50898
Angular displacement,50898
retroflex,50898
all-pairs shortest path,50898
membrane transport,50898
organoleptic,50898
Mechanical efficiency,50898
directed graph,50898
molecular neuroscience,50898
neuromodulators,50898
corneal opacification,50898
A/D,50898
Oslo,50898
cross-presentation,50898
CST,50898
fuzzy logic,50898
glycolide,50898
crystal lattice,50898
optical microscopy,50898
ontologies,50898
Bis-GMA,50898
finitary,50898
CBX2,50898
foldamers,50898
major depression inventory,50898
Water Framework Directive,50898
pressor,50898
asteroid,50898
Sulforhodamine B,50898
canid,50898
Molecular dynamics,50898
Argon,50898
Incomplete,50898
wheat,50898
GIC,50898
embryonal rhabdomyosarcoma,50898
Europeanization,50898
total chemical potential,50898
nasal septum,50898
Minerva,50898
Glasgow Haskell compiler,50898
Reuters,50898
customer equity,50898
Kiev,50898
cluster randomized trial,50898
Boston Scientific,50898
cadence,50898
Stokes equations,50898
Sisyphus,50898
Leukemia,50898
phthalocyanine,50898
Cambridge Philosophical Society,50898
sheepskin,50898
anastomotic,50898
narcoleptic,50898
impact assessment,50898
Ebola,50898
Systematic review,50898
substance dependent,50898
Zwicky,50898
shrubland,50898
Sibel,50898
fluid resuscitation,50898
Beck Depression Inventory,50898
Ross,50898
hypofrontality,50898
pressure swing adsorption,50898
summertime,50898
carrying capacity,50898
cervical spine,50898
suture,50898
Spontaneous emission,50898
Scanning Multichannel Microwave Radiometer,50898
Limosa limosa,50898
cochlear implantation,50898
ECOG,50898
mitomycin,50898
external defibrillator,50898
fine-needle aspiration,50898
ribosomal RNA,50898
Bolshevik Revolution,50898
ARMAX,50898
total variation,50898
ncbi,50898
Nostra Aetate,50898
Ames,50898
Telemedicine,50898
pick-up artists,50898
antigenic drift,50898
PKK,50898
wound repair,50898
antiviral medication,50898
scale-invariant,50898
formula unit,50898
Parkes radio telescope,50898
tripodal ligand,50898
parabolic flight,50898
point prevalence,50898
contact tracing,50898
Stereolithography,50898
amine dehydrogenase,50898
Turkic language,50898
transient ischemic attacks,50898
gauge-gravity duality,50898
provocation test,50898
sound power,50898
Major depressive disorder,50898
aquaria,50898
The Wildlife Society,50898
The Coca-Cola Company,50898
opacity,50898
dilated cardiomyopathy,50898
dissolved inorganic carbon,50898
time lost,50898
colorimetric,50898
piezoelectric surgery,50898
basic block,50898
tryptophan metabolism,50898
Drinfeld,50898
Sanmatenga,50898
cyclobutadiene,50898
India-Asia collision,50898
bounded rationality,50898
electrode potential,50898
Oceania,50898
capital accumulation,50898
North Atlantic Oscillation,50898
The observations,50898
Giemsa-stained,50898
lumefantrine,50898
fetal weight,50898
Retama,50898
Cyclic voltammetry,50898
Psylla,50898
pentanes,50898
double blind,50898
CCl4,50898
BAX,50898
Muon,50898
cementation,50898
interleukin-12,50898
Rheumatoid Arthritis,50898
cell surface marker,50898
conditional inference,50898
balneotherapy,50898
BWT,50898
alpha-ketoglutarate,50898
two-dimensional gel electrophoresis,50898
PALB2,50898
Yakutsk,50898
iodine 131,50898
continuous stirred tank reactor,50898
S14,50898
Colitis,50898
characteristic impedance,50898
yeast artificial chromosomes,50898
saturation magnetization,50898
thiol-disulfide exchange,50898
calcium phosphate,50898
decision trees,50898
Heller myotomy,50898
anion exchanger,50898
convolution,50898
Georgics,50898
Latent Class Analysis,50898
Glioma,50898
self-similar,50898
metacarpal bone,50898
routing algorithm,50898
sequela,50898
Electroencephalography,50898
indole,50898
Gozo,50898
para-hydrogen,50898
Kashiwara,50898
crocodile,50898
ecological validity,50898
grammatical gender,50898
sulphonylurea,50898
bid-ask spread,50898
unique identification number,50898
overtreated,50898
morpheme,50898
isochrones,50898
Randomized trials,50898
anaesthetist,50898
Petalas,50898
N-14,50898
GSMA,50898
cis-trans,50898
least-squares analysis,50898
viral envelope,50898
lexeme,50898
Heerlen,50898
Human resources,50898
isocline,50898
gift exchange,50898
forego,50898
macula densa,50898
flatbed scanner,50898
Kinanthropometry,50898
route planner,50898
epistemic culture,50898
keratin 17,50898
epithelial cell adhesion molecule,50898
hepatosplenomegaly,50898
DGLAP,50898
Fgfs,50898
Hepatitis C,50898
gastric ulcer,50898
bare skin,50898
minimum cost flow problem,50898
Rituximab,50898
semelparity,50898
Beagle,50898
pervaporation,50898
MFC,50898
Saliva,50898
Basle,50898
familial adenomatous polyposis,50898
auditory thalamus,50898
error-related negativity,50898
orbital angular momentum,50898
Safran,50898
nucleus pulposus,50898
IEEE,50898
calbindin,50898
hydrolyse,50898
CER,50898
birth defect,50898
centrifugal force,50898
Fast Fourier Transform,50898
Beowulf cluster,50898
San Pablo,50898
rotational transition,50898
Astigmata,50898
tetrapeptide,50898
grippers,50898
kernel space,50898
transcatheter aortic valve implantation,50898
structured analysis,50898
emergency department,50898
syntaxin,50898
Hilbert space,50898
Bianchi,50898
left anterior descending,50898
Conditional Value-at-Risk,50898
nuisance parameter,50898
enamine,50898
William Stephenson,50898
trehalose,50898
transportation science,50898
Alpine Foreland,50898
The GEYSERS,50898
F-7,50898
tendinopathy,50898
abdominal wall,50898
magnetic monopole,50898
Social phobia,50898
immunotherapeutic,50898
synergism,50898
mit,50898
North Anatolian Fault Zone,50898
Endocrinology,50898
hybrid mass spectrometer,50898
endothelial protein C receptor,50898
la sociedad,50898
el mundo,50898
high-molecular-weight kininogen,50898
UFC,50898
"2,6-lutidine",50898
ciudadanos,50898
tertiary structure,50898
el Norte,50898
IMRT,50898
lossless,50898
discrete series,50898
isovaleryl-CoA dehydrogenase,50898
log-odds,50898
propositus,50898
rhinovirus,50898
decompression sickness,50898
gutta-percha,50898
fimbria,50898
US$,50898
hermeneutics,50898
Weyl tensor,50898
principal component regression,50898
ambiguity aversion,50898
energy transition,50898
Acting Out,50898
shock wave,50898
The MATRIX,50898
vardenafil,50898
maternal health,50898
M theory,50898
Chern-Simons,50898
francophone,50898
bone marrow biopsy,50898
clinical clerkship,50898
RNASEH2C,50898
organization theory,50898
LDL receptor,50898
Alcaligenes,50898
CCL13,50898
PISA,50898
programmed cell death,50898
higher vertebrates,50898
bronchial obstruction,50898
estuary,50898
universal history,50898
chemically peculiar,50898
ligand field,50898
Merlin,50898
semiempirical,50898
Slovenia,50898
herniated disc,50898
non-Hamiltonian,50898
Horner-Wadsworth-Emmons,50898
Tropical Rainfall Measuring Mission,50898
Frustule,50898
jump diffusion,50898
Emile Van Ermengem,50898
chromosome 14,50898
smax,50898
venography,50898
homoplasy,50898
contour mapping,50898
hydroponics,50898
formate dehydrogenase,50898
nosocomial infection,50898
opalescence,50898
condensates,50898
Cacopsylla,50898
atrial septal defect,50898
Amplicons,50898
euphorbiae,50898
Monoclonal antibodies,50898
N. meningitidis,50898
acute myelogenous leukemia,50898
fetal growth restriction,50898
Scots,50898
Trondheim,50898
event-related potentials,50898
Noctuidae,50898
buffered charcoal yeast extract agar,50898
Haematoxylin,50898
percolation clusters,50898
high contrast,50898
diazinon,50898
ubiquitin,50898
RMS,50898
caspofungin,50898
memory alpha,50898
beta distributed,50898
femoral canal,50898
Lima,50898
wild tobacco,50898
atmospheric methane,50898
locally noetherian,50898
junction tree algorithm,50898
hysteretic,50898
population registry,50898
parametric model,50898
adaptive behavior,50898
immunohistochemistry (IHC),50898
penguin,50898
sexological,50898
C*-algebras,50898
gelatin,50898
cell wall,50898
fluorography,50898
International Maritime Bureau,50898
Artificial selection,50898
Multiple regression,50898
chemical ionization,50898
cuprates,50898
foreign body reaction,50898
Weight Watchers,50898
3'UTR,50898
bright blue,50898
problem-solving therapy,50898
neonatologists,50898
Birth order,50898
face centered cubic,50898
dicyanamide,50898
purposive sampling,50898
neurology,50898
spy,50898
acetaminophen,50898
U.K.,50898
carcinoembryonic antigen,50898
coniferous,50898
glucose intolerance,50898
loss function,50898
Supersymmetry,50898
chromosome 16,50898
L2HGDH,50898
Doetinchem,50898
Perfusion scanning,50898
increased female age,50898
kinship,50898
group R,50898
piecewise,50898
streptomycin,50898
Fallersleben,50898
primary auditory cortex,50898
sunscreen,50898
social preferences,50898
CRN,50898
artificial heart valve,50898
single photon emission computed tomography,50898
indicator species,50898
photonic crystals,50898
Sino-US relationship,50898
Netflix,50898
nevi,50898
De pictura,50898
Aquarius,50898
coding theory,50898
ovarian tumor,50898
taxon,50898
kindling model,50898
Phodopus,50898
immunodeficiency syndrome,50898
FN,50898
LILACS,50898
KBS,50898
cryptographic,50898
Dilated cardiomyopathy,50898
time integral,50898
Eastern Siberia,50898
phonation,50898
Cabinet,50898
Quenstedt,50898
VCA,50898
smog,50898
magnetic resonance images,50898
The experiment,50898
occupational stress,50898
salvation,50898
Residual time,50898
ECCO,50898
stilbene,50898
lipophilic,50898
nanosystems,50898
queueing systems,50898
hair cells,50898
convenience sampling,50898
physical therapists,50898
MRP2,50898
Dreissena polymorpha,50898
Galton,50898
phonotactic,50898
blinded study,50898
red color,50898
deglutition,50898
time management,50898
decay mode,50898
Human immunodeficiency virus (HIV),50898
carousel,50898
Living Conditions,50898
supersaturation,50898
external rotation,50898
scintillation,50898
No signal,50898
naphthol,50898
black hole complementarity,50898
social housing,50898
acute promyelocytic leukaemia,50898
spin coating,50898
Type II supernova,50898
Ardea alba,50898
South Australia,50898
distance function,50898
eosinopenia,50898
adrenomyeloneuropathy (AMN),50898
International Space Station,50898
Almada,50898
total response,50898
electronic publishing,50898
asymmetric synthesis,50898
self-blame,50898
semiotic,50898
Troponin I,50898
specie,50898
HKUST,50898
clinical depression,50898
anther,50898
ring-opening polymerization,50898
exenteration,50898
perspex,50898
repressed memory,50898
pyrene,50898
Record Linkage,50898
Hausdorff,50898
Enzyme replacement therapy,50898
distillation,50898
Aneurysm,50898
accelerometer,50898
power analysis,50898
Planktothrix,50898
organochlorines,50898
hyper-threaded,50898
microelectrodes,50898
Schiphol International Airport,50898
Cauca,50898
copy number variants,50898
cardiac marker,50898
dorsolateral prefrontal cortex,50898
microbiology,50898
selective serotonin reuptake inhibitor,50898
lipofuscin,50898
esophageal cancer,50898
comparative religion,50898
parallax,50898
artificial insemination,50898
open label study,50898
Brabant,50898
Hydrophilic,50898
Nguni,50898
inulin,50898
MCF-7,50898
nonsteroidal anti-inflammatory drugs (NSAIDs),50898
physician assisted suicide,50898
breathing frequency,50898
transition system,50898
thermodynamic limit,50898
host-guest,50898
acoustic attenuation,50898
NKT,50898
DEHP,50898
electrochemiluminescence,50898
AIDS-related complex,50898
N87,50898
Hanzhong city,50898
time projection chamber,50898
transmitted vertically,50898
Pacific Islands,50898
thyroid hormone receptor,50898
S. cerevisiae,50898
site-directed spin labeling,50898
LCT,50898
oral sex,50898
mollusk,50898
B41,50898
Sukarno,50898
lasso,50898
data compression,50898
Radio frequency,50898
splitter,50898
Augustine,50898
mummified,50898
open set,50898
negative feedback,50898
Pennsylvania,50898
neuromodulation,50898
petechiae,50898
sulphur,50898
soft drug,50898
factor B,50898
burn center,50898
Survival analysis,50898
capsaicin,50898
phonon,50898
wavepacket,50898
electronic prescribing,50898
Confounding,50898
educational psychology,50898
microwave cavity,50898
semiconductor optical amplifier,50898
Peruvian Amazonia,50898
strong feelings,50898
Fluorescence correlation spectroscopy,50898
CYP2B6,50898
expanding universe,50898
scleroderma,50898
AP2m1,50898
broad peak,50898
perfect balance,50898
luminosity distance,50898
cyclosporin A,50898
stoichiometries,50898
equivalence relation,50898
V-ATPase,50898
geochronology,50898
limit order book,50898
Fermilab,50898
Lao,50898
eigenstate,50898
Likert scale,50898
dorsiflexion,50898
magnetostriction,50898
Type 1 diabetes,50898
36 children,50898
"Santa Clara, California",50898
osmosis,50898
New York,50898
chronic spontaneous urticaria,50898
Mammography,50898
CFA,50898
Bronfenbrenner,50898
self-appearance,50898
phototherapy,50898
counterpoint,50898
broad fields,50898
Genbank,50898
H2SO4,50898
pattern matching,50898
fluorescent label,50898
structural dynamics,50898
variance decomposition,50898
Informal caregivers,50898
advance care planning,50898
Hurwitz number,50898
M81,50898
5S rRNA,50898
The interview,50898
visual magnitude,50898
majority rule,50898
Protestant,50898
model plants,50898
response bias,50898
e.g. green,50898
super-resolution microscopy,50898
feeling free,50898
lutidine,50898
equivalent width,50898
characteristic variety,50898
Niemann-Pick disease,50898
vertical velocity,50898
nanostructure,50898
isotopomers,50898
anthozoan,50898
gyttja,50898
Lambarene,50898
Cosmetics Directive,50898
antiviral drug,50898
Orthopaedics,50898
William Whewell,50898
bivalve,50898
apixaban,50898
inertance,50898
charge density,50898
paediatric surgery,50898
lactic acidosis,50898
biomedicine,50898
FVB mice,50898
requirements specification,50898
sintered,50898
Bath,50898
Reading,50898
formative assessment,50898
Mato Grosso,50898
Amsterdam School,50898
Juncker Commission,50898
transglutaminase,50898
aortic rupture,50898
MYO9B,50898
perceptual learning,50898
circle method,50898
hexafluoroisopropanol,50898
genetic deletion,50898
ocular hypertension,50898
Zeiss,50898
colectomy,50898
perfluorocarbon,50898
body habitus,50898
business process,50898
Kathmandu,50898
mineralocorticoid receptor,50898
nlm,50898
continuing medical education (CME),50898
Sexual function,50898
Graph Theory,50898
fertiliser,50898
American Economic Review,50898
laser cooling,50898
E-group,50898
anatomist,50898
Gaussian curvature,50898
anthracene,50898
hunting,50898
Dutch architecture,50898
muscularis propria,50898
Diffraction,50898
Internet gambling,50898
genome-wide profiling,50898
esterase,50898
mongrel,50898
color-magnitude diagram,50898
bumetanide,50898
ILO classification,50898
singular perturbation theory,50898
deionized water,50898
dosed,50898
Comino,50898
BRICS,50898
Confirmatory factor analysis,50898
temperature record,50898
C-4,50898
Early Neolithic,50898
Dr Pepper Snapple Group,50898
coagulopathies,50898
eclogite,50898
antimetabolites,50898
TTIP,50898
OpenSSH,50898
Charcot-Marie-Tooth,50898
complex matrix,50898
Cambridge,50898
JP,50898
built environment,50898
Axis II,50898
vis,50898
SNP Array,50898
Multiple correspondence analysis,50898
Affymetrix,50898
nucleophilic substitutions,50898
Alisols,50898
Pressure head,50898
rapidities,50898
Blood glucose,50898
retinol-binding protein,50898
correlation spectroscopy,50898
T. helveticus,50898
correlation matrix,50898
Schoenberg,50898
Istanbul,50898
buffet,50898
behaviour genetics,50898
RNA virus,50898
Ankara,50898
Montgomery,50898
Majorana,50898
argininosuccinate lyase,50898
prisoners' dilemma,50898
NES,50898
insufflated,50898
5-HTTLPR,50898
Indo-European,50898
Manaus,50898
mrad,50898
The chronic,50898
chromatic,50898
swine,50898
Khrushchev,50898
bronchoscopy,50898
free association,50898
Barthel,50898
Peptococcaceae,50898
dynamic simulation,50898
spherical geometry,50898
data mining,50898
HMG-CoA reductase,50898
ordered subset expectation maximization,50898
orbital plane,50898
vagal tone,50898
microorganism,50898
left main coronary artery,50898
multidetector computed tomography,50898
WOMAC,50898
polymerisation,50898
microcanonical ensemble,50898
two-component system,50898
machine learning algorithm,50898
total electron content,50898
Ullrich congenital muscular dystrophy,50898
sociological perspectives,50898
Balder,50898
biotroph,50898
gynecologic oncology,50898
overcompensation,50898
iodine deficiency,50898
triacylglycerols,50898
monogenetic,50898
Osteoarthritis,50898
mindfulness meditation,50898
interfacial tension,50898
Dicer,50898
mosaicism,50898
fossil record,50898
sex hormone-binding globulin,50898
pediatric intensive care unit,50898
retinopathy,50898
digitonin,50898
acrylate polymer,50898
crystal bases,50898
Wallerian degeneration,50898
urology,50898
anticorrelation,50898
family physician,50898
Comoros,50898
tetravalent,50898
Epicureanism,50898
Scirpophaga,50898
Community Innovation Survey,50898
Nuclear magnetic resonance,50898
packed bed,50898
seroprevalence,50898
small nuclear RNA,50898
vps,50898
cost-utility analysis,50898
Electrostatics,50898
MMC,50898
barm,50898
Schild plot,50898
barcode,50898
incidental finding,50898
cerebral atrophy,50898
spectral width,50898
Yang-Mills theory,50898
multidrug-resistant tuberculosis,50898
electrochemical reduction,50898
Unconditionally,50898
Ziehl-Neelsen,50898
LEDA,50898
Content validity,50898
phenobarbital,50898
Health insurance,50898
retinal ganglion cells,50898
approximate Bayesian computation,50898
social protection,50898
greyscale,50898
waveform,50898
cost-effectiveness analysis,50898
Bayley,50898
adjoint,50898
decay width,50898
bisimulation,50898
filtered backprojection,50898
HLX-1,50898
coupling parameters,50898
kringle domain,50898
una,50898
seroreversion,50898
bioterrorism,50898
POD,50898
las consecuencias,50898
unas,50898
prograde,50898
Ghent University,50898
adenine nucleotides,50898
market power,50898
refracted,50898
multifocal IOLs,50898
nih,50898
coherence time,50898
Daniel Miller,50898
Abisko,50898
PCBM,50898
invasibility,50898
total angular momentum,50898
compact object,50898
vicinal,50898
cross-reactive carbohydrate determinants,50898
A8,50898
algebraic K-theory,50898
Toronto,50898
PICUs,50898
gender non-conforming,50898
bone marrow transplantation,50898
hemiparesis,50898
Corticosteroids,50898
chemical cross-linking,50898
Chandrasekhar,50898
food web,50898
mobility model,50898
carmustine,50898
white bread,50898
bisphosphonates,50898
diaspores,50898
pH 2,50898
Kampala,50898
palaeoclimatic,50898
proportional counter,50898
Land-use planning,50898
deidentified,50898
tropomyosin,50898
bacilli,50898
throughfall,50898
biceps brachii,50898
intraepithelial lymphocyte,50898
feedback oscillators,50898
signal amplifier,50898
liquid crystal display,50898
market-based instruments,50898
lithotripsy,50898
Zenger,50898
isosurface,50898
flatfish,50898
J Rheumatol,50898
VPS,50898
fine structure,50898
Wiley,50898
The surgeons,50898
European Semester,50898
platelet factor 4,50898
empty set,50898
parental leave,50898
IL4,50898
GRID2,50898
1 L,50898
The adolescent,50898
scanning electron microscope (SEM),50898
quintet,50898
jasmine,50898
Lester,50898
giant star,50898
immune complex,50898
thrombospondin-1,50898
Rastrineobola,50898
penitentiary,50898
monozygotic,50898
sensu lato,50898
eluent,50898
The roots,50898
Sprague Dawley,50898
non-singular,50898
Laplacian,50898
magneto-optical trap,50898
calculus,50898
Trier Social Stress Test,50898
Ramsey,50898
Bochner space,50898
Bacterial Meningitis,50898
fracture reduction,50898
random variable,50898
Collembola,50898
Hartree-Fock,50898
classical nucleation theory,50898
agglomerative hierarchical clustering,50898
Mitchell,50898
2 L,50898
International Prostate Symptom Score,50898
side arm,50898
estuaries,50898
redox potential,50898
anal atresia,50898
lignicolous,50898
monism,50898
phosphoinositide,50898
greenhouse gas emission,50898
Doppler echocardiography,50898
site-directed mutagenesis,50898
L-2-hydroxyglutarate dehydrogenase,50898
ulnar nerve,50898
LOw Frequency ARray,50898
Petunia,50898
gneiss,50898
incisally,50898
Delta C,50898
Majority function,50898
Scenedesmus,50898
Sensation seeking,50898
probability measure,50898
subcloned,50898
North sea,50898
Aqua,50898
inter-quartile range,50898
dipalmitoylphosphatidylcholine,50898
Ellis,50898
Cook Medical,50898
superior temporal gyri,50898
ROC analysis,50898
radiation oncology,50898
interphase,50898
serial dependence,50898
transcendental meditation,50898
decision model,50898
hydrodynamic radius,50898
population genetics,50898
empirical Bayes,50898
DSM-III,50898
reconstruction algorithm,50898
indoor residual spraying,50898
segmental analysis,50898
CIE,50898
coiled-coil,50898
saddle,50898
complexing agent,50898
antimalarial agent,50898
radius fracture,50898
intestinal biopsies,50898
SN 1006,50898
osteotomies,50898
autocorrelated,50898
crosswind,50898
embryonic development,50898
Observational study,50898
SHV,50898
polyacrylamide,50898
Daya Bay,50898
F-4,50898
Global sourcing,50898
Leucocytes,50898
Omniscan,50898
sorghum,50898
amenorrhoea,50898
grain growth,50898
patient-controlled analgesia,50898
CYP1A,50898
Government Pharmaceutical Organization,50898
Petersson,50898
armchair,50898
pattern recognition receptor,50898
Salvelinus,50898
karst,50898
polyether,50898
dyspepsia,50898
weakly coordinating anions,50898
field capacity,50898
dynamic structures,50898
solid solution,50898
polydactyly,50898
echography,50898
yttrium aluminium garnet,50898
Semmencherry,50898
vastus lateralis muscle,50898
bond energy,50898
photosphere,50898
noncompetitive inhibitor,50898
conformal field theory,50898
sound intensity,50898
loudness,50898
glial fibrillary acidic protein,50898
phenytoin,50898
Z-isomers,50898
calvaria,50898
lymphocytic choriomeningitis virus,50898
human rights,50898
pragma-dialectics,50898
Focus group,50898
mineral water,50898
collagen type IV,50898
plastic surgery,50898
intravaginal ejaculation latency time,50898
left circumflex artery,50898
calcium channel blocker,50898
SNP genotyping,50898
tenofovir disoproxil,50898
Kohfidisch,50898
chromosomal rearrangement,50898
Epinions,50898
Social distance,50898
attachment therapy,50898
open heart surgery,50898
Dutch language,50898
microsome,50898
radiculopathy,50898
urban legend,50898
CD9,50898
IOPs,50898
taste buddies,50898
Nicotiana tabacum,50898
Anas georgica,50898
granulomatous slack skin,50898
biologist,50898
dextran 70,50898
multiplexing,50898
Bantu,50898
Bangkok,50898
French Canadian,50898
Perry,50898
Fermi Gamma-Ray Space Telescope,50898
OMC,50898
South East Asia,50898
Communism,50898
The Questionnaire,50898
ischemic injury,50898
operon,50898
Minkowski space,50898
Embase,50898
Philips,50898
survey methodology,50898
explant,50898
dwarf nova,50898
Diaphorina citri,50898
liquidity risk,50898
Treitschke,50898
Homo sapiens,50898
Tower Hamlets,50898
XO,50898
particle filter,50898
pelvic organ prolapse,50898
lipidomics,50898
Riemannian,50898
stopping rule,50898
protochlorophyllide,50898
meningiomas,50898
thoracic aortic,50898
enzyme cofactor,50898
response surfaces,50898
3D point clouds,50898
Fast Radio Burst,50898
transposition,50898
Public administration,50898
vulnerable plaque,50898
fundamentalist,50898
lamella,50898
super-Earth,50898
GLOBALVIEW,50898
oxcarbazepine,50898
MeSH,50898
hydrophobic core,50898
pyrin domain,50898
Luminous Blue Variable,50898
Harris hip score,50898
transporter 2,50898
parallel tempering,50898
edoxaban,50898
NHP,50898
capillary bed,50898
flicker,50898
Structural equation modeling,50898
lupin,50898
thermodynamic integration,50898
gall midges,50898
cauliflower,50898
homocystine,50898
Macroglobulinemia,50898
blood bank,50898
spica,50898
chiropractor,50898
chromosome 4,50898
sulfate-reducing bacteria,50898
sugar cane,50898
Product market,50898
HLA-DQ,50898
democratic deficit,50898
gender identity disorder,50898
immunofluorescent,50898
atmospheric pressure,50898
Higgs particle,50898
Multiple Indicator Cluster Surveys,50898
cardiovascular magnetic resonance imaging,50898
laparotomies,50898
ovarian follicles,50898
Geriatric Depression Scale,50898
V6,50898
complement fixation test,50898
myelotoxicity,50898
chromosomal translocation,50898
small island,50898
MOMA,50898
voiceless,50898
Lanthanide,50898
conformal group,50898
financial accelerator,50898
polystyrene,50898
c.m.,50898
acute lymphocytic leukemia,50898
EGFR inhibitor,50898
RGB,50898
DMF,50898
chromosome number,50898
handball,50898
Kac-Moody algebra,50898
dispersion equation,50898
key performance indicator,50898
Kallikrein,50898
antigen presenting cells,50898
Leptoquark,50898
bulk density,50898
magnetic activity,50898
Three-phase,50898
olefin polymerization,50898
Bone marrow,50898
duodenal biopsy,50898
Shigella flexneri,50898
vascular invasion,50898
sundial,50898
CoDe Project,50898
NS5A,50898
Fujinon,50898
capsomere,50898
femora,50898
benzaldehyde,50898
empathy-altruism,50898
commodification,50898
cell-to-cell variability,50898
common market,50898
prenatal cocaine exposure,50898
minimal inhibitory concentration,50898
FK506,50898
heuristic-based,50898
Index Medicus,50898
gaussmeter,50898
propaganda,50898
ecosystem model,50898
Foreign direct investment,50898
Larus,50898
Post-traumatic stress disorder,50898
hyperfine splitting,50898
transient analysis,50898
arbitrage,50898
rostral,50898
glutamyl,50898
Synoptics,50898
distributed computing,50898
SL-1,50898
itch,50898
fluorescent microscopy,50898
clause,50898
non-communicable disease,50898
20/20,50898
pepsin,50898
chthonic,50898
The Electrochemical Society,50898
isobutyryl-CoA,50898
OSEM,50898
sea anemone,50898
analytic curve,50898
venogram,50898
Glasgow Coma Score,50898
m-xylene,50898
Venus,50898
silicone,50898
polar distribution,50898
flue,50898
Services Directive,50898
US Naval Observatory,50898
search game,50898
deep linguistic processing,50898
A-type star,50898
DMBA,50898
Political Communication,50898
retrocalcaneal bursitis,50898
CD127,50898
UV-VIS spectroscopy,50898
Bertalanffy,50898
PepsiCo,50898
amplified fragment length polymorphism,50898
dizygotic,50898
keratinocyte,50898
horizontal transmission,50898
developmental disability,50898
QPCR,50898
misfits,50898
C-12,50898
anticipatory systems,50898
BCL-XL,50898
nephrotoxicity,50898
drug tolerance,50898
film scanner,50898
Irreducible representation,50898
sapwood,50898
CBr4,50898
reovirus,50898
minefield,50898
STK11,50898
peat swamp,50898
clinical risk,50898
collaborative learning,50898
in-vitro fertilization,50898
AGNs,50898
transplant rejection,50898
World Bank,50898
Christ,50898
surgical site infection,50898
electric double layer,50898
cysteamine,50898
alpha 5,50898
grayscale,50898
malignant melanoma,50898
sublation,50898
HOOGSTRATEN,50898
metastasize,50898
polaris,50898
glucose-6-phosphate,50898
Actinomyces naeslundii,50898
River Meuse,50898
complex group,50898
blood lactate,50898
continuous stochastic process,50898
spectral energy distribution,50898
daunorubicin,50898
xenograft,50898
prolate,50898
Nephrology,50898
I-2,50898
nanoporous materials,50898
rainforest,50898
Shklovskii,50898
Structural equation modelling,50898
blood gas,50898
submucosa,50898
superior conjunction,50898
feedback inhibition,50898
SEC23A,50898
cyclodecapentaene,50898
adenosine monophosphate,50898
Filter,50898
Tennessee,50898
prospective cohort studies,50898
Puberty,50898
microarchitecture,50898
surfing,50898
Uncontrolled,50898
Wakefulness,50898
Adam Smith,50898
pleura,50898
genotoxicity,50898
CEA,50898
microsporangia,50898
quasiparticles,50898
bricolage,50898
nonself,50898
Tevatron Collider,50898
color space,50898
hypokalemia,50898
diabetes type II,50898
"2,3,7,8-tetrachlorodibenzodioxin",50898
v6,50898
Ortalis,50898
WSRT,50898
IEAK,50898
glucosylceramide,50898
MBq,50898
flux tube,50898
organoid,50898
International Geomagnetic Reference Field,50898
plantaris,50898
neonatal intensive care unit (NICU),50898
pressure overload,50898
PTPN11,50898
Organizational Ecology,50898
carbon tax,50898
Lumbar puncture,50898
Minkowski vacuum,50898
Muscle biopsies,50898
B44,50898
Chania,50898
Intel,50898
noxious stimuli,50898
oncogenesis,50898
brassinosteroid,50898
yeast extract,50898
vsftpd,50898
Barbeyaceae,50898
atmospheric deposition,50898
non-intervention,50898
dental pain,50898
M84,50898
simple graph,50898
cyclist,50898
Percolation,50898
Acrisols,50898
uso,50898
PAD 12,50898
osmotic pressure,50898
Sanz,50898
SPSS,50898
nu nu,50898
DAT,50898
Pacific,50898
LCD,50898
Line Islands,50898
thyroid hormone synthesis,50898
N-acetyltransferase,50898
first-order transition,50898
virtual photon,50898
penal substitution,50898
metastasized,50898
pure culture,50898
mass spectra,50898
diastase,50898
ductile,50898
MINI,50898
IRS,50898
vitrectomy,50898
bagasse,50898
ERS-2,50898
Google Scholar,50898
Fort Portal,50898
perceptual adaptation,50898
GX 339-4,50898
mass spectrum,50898
free recall,50898
B-cell receptor,50898
Curie-Weiss law,50898
country risk,50898
Brenner,50898
Strong feelings,50898
ekphrasis,50898
NGC 2808,50898
stilt,50898
endotracheal intubation,50898
Histopathology,50898
kidney failure,50898
dietician,50898
5-Fluorouracil,50898
position angle,50898
process calculus,50898
premature chromosome condensation,50898
Microbiology,50898
Xanthi,50898
encephalomyopathy,50898
South-South cooperation,50898
clomiphene citrate,50898
laser spectroscopy,50898
catenin,50898
thiophene,50898
switching costs,50898
oceanic island,50898
fetal alcohol syndrome,50898
aortic valve stenosis,50898
Gland,50898
seasonal component,50898
ristocetin,50898
fertility treatment,50898
Qualtrics,50898
Wnt signaling pathway,50898
neurodegeneration,50898
electromotor,50898
EOS,50898
hydrolyze,50898
Disseminated intravascular coagulation,50898
Edwards Lifesciences,50898
IaaS,50898
pyrophosphatases,50898
biological network,50898
spot analysis,50898
anterior insula,50898
12 group,50898
Status epilepticus,50898
Starbucks,50898
matrix formulation,50898
signal-to-background ratio,50898
Demorest,50898
chest radiography,50898
electron spin resonance spectroscopy,50898
anaphora resolution,50898
procollagen,50898
Post-Traumatic Stress Disorder (PTSD),50898
Renal Association,50898
oxyquinoline,50898
Polyadenylation,50898
fusion rules,50898
evolutionary stable strategy,50898
S-adenosylhomocysteine,50898
temple,50898
quadriplegia,50898
ill-posed,50898
glass-ionomer,50898
cyclopentene,50898
polarimetric,50898
Dextran,50898
square root,50898
forge,50898
Social interaction,50898
trigeminal ganglion,50898
cotton,50898
coordination geometry,50898
villous,50898
Hydronephrosis,50898
tidal force,50898
ATC,50898
KLA,50898
moulting,50898
Thrombectomy,50898
overlay network,50898
pars plana vitrectomy,50898
postpartum depression,50898
seed structure,50898
Macaca,50898
botulinum toxin A,50898
Neural networks,50898
Likert,50898
poly(methyl methacrylate),50898
SDTs,50898
Einasto profile,50898
case notes,50898
clubfoot,50898
polyprotein,50898
Cobb,50898
Imperial College Healthcare NHS Trust,50898
juvenile dermatomyositis,50898
mass murder,50898
Flagstaff,50898
Pyralidae,50898
source count,50898
Katrina,50898
Density functional theory (DFT),50898
Magnetoencephalography,50898
microprobe,50898
sclerotherapy,50898
MATLAB,50898
Quantitative trait locus,50898
Legionella pneumophila,50898
cox1,50898
Monoceros,50898
toll-like receptor,50898
Odds ratio,50898
serial reaction time,50898
Fractional anisotropy,50898
human pharynx,50898
infrared excess,50898
anti-counterfeiting,50898
marginal likelihood,50898
RNA-dependent RNA polymerase,50898
optimal transport,50898
iconicity,50898
ectropion,50898
buckling,50898
insemination,50898
Intervention Mapping,50898
electromyography,50898
Twente,50898
Palaeogene,50898
homolytic,50898
Genotyping,50898
Celtic,50898
stud,50898
proband,50898
somatostatin,50898
fluorotelomer alcohol,50898
Bootstrapping,50898
flow dynamics,50898
population control,50898
HLA-B35,50898
social stigma,50898
Undersea Hyperb Med,50898
sea level pressure,50898
lupinine,50898
error propagation,50898
unit cube,50898
blood glucose monitoring,50898
Compton Gamma-Ray Observatory,50898
transferrin receptor,50898
excise,50898
quadrupole mass spectrometer,50898
grain boundaries,50898
chain transfer agent,50898
lymphocele,50898
23andMe,50898
aminopterin,50898
YAG,50898
oligophagous,50898
computer architecture,50898
enthesitis,50898
phonatory,50898
chest pain,50898
Papua New Guinea,50898
RISC,50898
pregnancy test,50898
5'-untranslated region,50898
C4b-binding protein,50898
helium flash,50898
Idealism,50898
NEC,50898
pulvinar,50898
Group 3,50898
cluster headache,50898
multiple comparisons,50898
Call center,50898
astrometry,50898
evolutionarily stable,50898
Globigerina,50898
stereolithography,50898
Bifidobacterium animalis,50898
hyperparameters,50898
meningococcal infections,50898
coastal plain,50898
short-term memory,50898
tomographic reconstruction,50898
Age-standardized,50898
barium,50898
Europe today,50898
dental plaque,50898
Spodoptera littoralis,50898
hyperreflexia,50898
Measurement invariance,50898
Experiential learning,50898
big bang,50898
synucleinopathy,50898
iron(II),50898
World Health Organisation,50898
newborn screening,50898
hyperprolactinaemia,50898
Doppler sonography,50898
Calcite,50898
multiprocessor,50898
Majete Wildlife Reserve,50898
binge eating,50898
EMBO,50898
M/G/1 queue,50898
LIDAR,50898
cis-acting,50898
single-photon emission computed tomography,50898
space mapping,50898
radiometric,50898
assembler,50898
hyponatraemia,50898
Cold War,50898
anthropomorphic,50898
thermal energy,50898
AGAT,50898
macromodel,50898
terpene,50898
Ghent,50898
matrilineal,50898
vitamin pill,50898
Philodendron,50898
hemoglobinopathy,50898
crustacean,50898
QT prolongation,50898
insular area,50898
E3,50898
gene ontology,50898
smoke-free laws,50898
alumina,50898
biologics,50898
SS 433,50898
transient flow,50898
BestBets,50898
nonwoven,50898
fluorophores,50898
decoherent,50898
BrdU,50898
NSA,50898
precautionary approach,50898
cardiac surgical procedures,50898
Fulica ardesiaca,50898
expectation maximization,50898
Terceira,50898
ringed sideroblasts,50898
Gnosticism,50898
huntingtin,50898
oolong,50898
chartist,50898
olivetol,50898
mental arithmetic,50898
The Touch,50898
restriction fragment length polymorphisms,50898
The germ,50898
rDNA,50898
BOLD,50898
blueshift,50898
Culex,50898
catheterization,50898
LSU,50898
welfare dependency,50898
collagen-induced arthritis,50898
electrophysiology,50898
TIM,50898
Information Theory,50898
hyoid bone,50898
Weyl invariance,50898
flood insurance,50898
random effects model,50898
SIAM,50898
Jansky,50898
The applicators,50898
Tibetan,50898
spin-orbit interaction,50898
Cracidae,50898
crystal growth,50898
vapor pressure deficit,50898
murnong,50898
Palomino,50898
mortise,50898
Celiac Disease,50898
confocal laser scanning microscopy,50898
overfitting,50898
Bumetanide,50898
residential segregation,50898
chrysene,50898
collision-induced dissociation,50898
hyperviscosity,50898
OMEGA,50898
evolutionarily stable strategy,50898
simple power,50898
psychopathological,50898
Effelsberg,50898
CD33,50898
Confirmation,50898
Breaking bad,50898
person centered care,50898
Nurses' Health Study,50898
control arm,50898
band gap,50898
divide-and-conquer,50898
hearing impairment,50898
aprotic,50898
pluripotency,50898
Principal components analysis,50898
colposcopic,50898
LNGS,50898
colloidal glasses,50898
Tajikistan,50898
Asymmetric dimethylarginine,50898
Propene,50898
Emotional distress,50898
National Science Foundation,50898
pipette,50898
left-libertarian,50898
aspergillosis,50898
Na2O,50898
nuclear factor-kappa B,50898
FIR,50898
hypervariable region,50898
Boston Consulting Group (BCG),50898
National Health Service (NHS),50898
pyeloplasty,50898
BMI-1,50898
The analogs,50898
fecundity,50898
luminescence dating,50898
leucine-rich repeat,50898
optical coherence tomography (OCT),50898
small-cell lung cancer,50898
epifluorescence microscopy,50898
great arteries,50898
Ras,50898
Sexual objectification,50898
feature extraction,50898
focal length,50898
S. vulgaris,50898
24 hrs,50898
tangent space,50898
afterload,50898
CNE,50898
Electrophysiological,50898
Alternaria solani,50898
Giemsa,50898
monospecific,50898
titanocene,50898
peptide YY,50898
L-infinity,50898
association analyses,50898
Von Willebrand factor,50898
standardized mortality ratio,50898
The moments,50898
campesterol,50898
polydispersity,50898
decision-tree,50898
Fmoc,50898
Pyruvate dehydrogenase deficiency,50898
helix-turn-helix,50898
smallholding,50898
cosmic rays,50898
expert systems,50898
amplitude compression,50898
photolysis,50898
dyslexic,50898
Tibet,50898
Anonymity,50898
Acidobacteria,50898
intra-class correlation coefficient,50898
surgical margin,50898
membrane estrogen receptor,50898
magic angle spinning,50898
octahedral,50898
Acetazolamide,50898
Cardiac Arrest,50898
Lung function,50898
Resampling,50898
DASH,50898
arginase,50898
band-pass,50898
C57Bl/6,50898
pseudoxanthoma elasticum,50898
overtreatment,50898
striate,50898
Tungsten,50898
proportional hazards models,50898
Roman fort,50898
giant component,50898
nuclide,50898
NVidia,50898
Conscientiousness,50898
EELS,50898
Albuminuria,50898
Pompe disease,50898
hydroxychloroquine,50898
granulocyte-macrophage colony-stimulating factor,50898
Airfoil,50898
coronary spasm,50898
endotoxins,50898
azimuthal angle,50898
Field experiment,50898
headscarves,50898
GW170817,50898
polyribosomes,50898
bioindicators,50898
Hebbian,50898
molecular sieve,50898
intracytoplasmic sperm injection,50898
tenotomy,50898
Neotropical,50898
AgeLine,50898
carbonated,50898
preintegration complex,50898
eIF2B,50898
oxygen toxicity,50898
Reno,50898
mandibular condyle,50898
Microsoft Excel,50898
monodisperse,50898
volumetric analysis,50898
statistically independent,50898
Perioperative mortality,50898
Xenophon,50898
The marker,50898
Moderate Resolution Imaging Spectroradiometer,50898
naphthalene,50898
chlorothiazide,50898
pre-main sequence,50898
Kohn-Sham,50898
crosswise,50898
motor action,50898
pulse wave velocity,50898
scalar particle,50898
Fibonacci,50898
adrenomyeloneuropathy,50898
Vela X,50898
Task group,50898
endoscopic retrograde cholangiopancreatography,50898
frontier orbital,50898
Whitethroat,50898
Internet hosts,50898
Baltic Proper,50898
ammonia transporter,50898
Maireana sedifolia,50898
Oxyura jamaicensis,50898
small-angle X-ray scattering,50898
intratracheal instillation,50898
tundra,50898
subtractive hybridization,50898
Kotoka International Airport,50898
WMAP,50898
3M,50898
force plate,50898
residence time,50898
Ligula intestinalis,50898
Irvine,50898
4-hydroxynonenal,50898
One week,50898
ERIC,50898
American Heart Association (AHA),50898
p120catenin,50898
drug metabolism,50898
diphtheria toxin,50898
F6,50898
Malsch,50898
rutaceous,50898
Western Scheldt,50898
PYTHIA,50898
Photorhabdus luminescens,50898
renal agenesis,50898
aortic stenosis,50898
streptococcal,50898
chlorthalidone,50898
RISM,50898
titin,50898
phylogenomics,50898
software prototypes,50898
friability,50898
2-acetylaminofluorene,50898
TCB,50898
Faraday,50898
multijet,50898
Generalized Parton Distributions,50898
quasiperiodic,50898
paralogous,50898
cell potential,50898
phenanthrene,50898
geothermal gradient,50898
protoplanetary discs,50898
WinBUGS,50898
Social Security Organization,50898
tableaux,50898
comparative genomic hybridization,50898
dispersion measure,50898
Silverstein,50898
X-ray spectroscopy,50898
Dysphagia,50898
di-2,50898
The wedge,50898
co-registered,50898
Catalan,50898
housing tenure,50898
tempo,50898
look-up table,50898
service sector,50898
trade liberalization,50898
highly questionable,50898
Pongo,50898
Tunceli,50898
speech acts,50898
duplex ultrasonography,50898
Pride,50898
visual perception,50898
mitochondrial genome,50898
4G,50898
cryptic species,50898
sparteine,50898
bispectrum,50898
rhyme,50898
The Economist,50898
electron diffraction,50898
paramagnetic beads,50898
tonic-clonic seizures,50898
Alcaligenes faecalis,50898
Problem-based learning,50898
NGC 2070,50898
menstruation,50898
magnetic hysteresis,50898
single nucleotide polymorphisms,50898
IL6,50898
The Standard Model,50898
thoracic cavity,50898
World Mental Health,50898
linear data structure,50898
PLP,50898
Metacognition,50898
equivariant K-theory,50898
tillage,50898
diffusion tensor,50898
neuropsychology,50898
quasar,50898
S100A4,50898
mandibular condyles,50898
U-2,50898
scatterometer,50898
bin size,50898
esophageal atresia,50898
radiolabeling,50898
Randomized Controlled Trial,50898
Deprotonation,50898
Trioza,50898
calorie restriction,50898
discontinuous permafrost,50898
temporoparietal junction,50898
semiquinone,50898
blood pressure cuff,50898
CT scanner,50898
Baltic Shield,50898
orthopaedic,50898
thrombogenic,50898
Karen,50898
cytosine arabinoside,50898
pile-dwelling,50898
TAG,50898
pulverized coal,50898
reading disabilities,50898
CRM,50898
Quartile,50898
NCR,50898
Gamma 3,50898
Palliative care,50898
dopant,50898
pork,50898
velocity dispersion,50898
propylene,50898
plumage,50898
Fourier space,50898
ATP-binding cassette,50898
Varicella,50898
Hutchinson,50898
expression cassette,50898
usability testing,50898
L. rubellus,50898
Uzbekistan,50898
corneal transplantation,50898
sitcom,50898
UV-Vis spectroscopy,50898
graph theoretical,50898
Wavelength,50898
SeaWiFS,50898
prick test,50898
rostrum,50898
diffusely reflecting,50898
Synchrotron radiation,50898
calcinosis,50898
neurotoxin,50898
microangiopathy,50898
cerium chloride,50898
dysbiosis,50898
induction chemotherapy,50898
adhesions,50898
"The Cedars, California",50898
delamination,50898
Anselm Haverkamp,50898
conglomerate,50898
barbiturates,50898
catalyses,50898
tuberculous pericarditis,50898
monodromy,50898
efficient frontier,50898
Communist Party,50898
vector gradient,50898
meiosis,50898
steatohepatitis,50898
interleukin 8,50898
TPM3,50898
radioresistant,50898
acetylacetonate,50898
AKP,50898
crucible,50898
chrysophyte,50898
ICAM-3,50898
magnon,50898
psychotherapist,50898
diimide,50898
Maternal mortality,50898
Psychiatric Services,50898
pinball,50898
Total cholesterol,50898
CD4+ lymphocytes,50898
co-crystal,50898
salmeterol,50898
valence band,50898
kimberlite,50898
civil law,50898
T12,50898
pelvic inflammatory disease,50898
complementarity principle,50898
gauge theory,50898
PatientsLikeMe,50898
Papionini,50898
Euclidean space,50898
harbour,50898
hydroquinone,50898
SH3 domain,50898
colocation,50898
good governance,50898
malabsorption,50898
macroprudential policy,50898
hypersexuality,50898
ppb,50898
Gemcitabine,50898
paraformaldehyde,50898
genetic counselling,50898
NYSE,50898
geomorphic,50898
azimuth,50898
mJy,50898
polyclonal antibodies,50898
Groningen,50898
Cadiz,50898
Cylindrospermopsis,50898
Beacon,50898
empirical modelling,50898
contact allergy,50898
5-I-R91150,50898
metabolically engineered,50898
bifid uvula,50898
Homogeneity,50898
semantic network,50898
heptapeptide,50898
locus heterogeneity,50898
photodetector,50898
ocean acidification,50898
thermal conductivity,50898
ABT,50898
activity monitor,50898
C-9,50898
polyester,50898
lenticular,50898
Germ cell,50898
biobank,50898
delocalize,50898
CT-scans,50898
Acculturation,50898
soil pH,50898
alae nasi,50898
intermediate-mass black hole,50898
doubly exponential,50898
Emphatic,50898
nucleoplasm,50898
expression vector,50898
O-7,50898
wide local excision,50898
Crevillente,50898
Dopaminergic,50898
CIA,50898
arthrogryposis,50898
ray tracing,50898
Mann,50898
Ischemic heart disease,50898
conical intersection,50898
coordinate system,50898
Helmholtz,50898
offshore investment,50898
homeodomain,50898
Policy analysis,50898
cashew nut,50898
electrical impedance tomography,50898
Swift XRT,50898
Geluk,50898
positive reaction,50898
traditional healer,50898
antibody titer,50898
thyroid disease,50898
BEA,50898
Xq28,50898
fibrin degradation products,50898
PdNS,50898
Chikwawa district,50898
Hull-White,50898
N49,50898
NT,50898
speedup,50898
intermittent rhythmic delta activity,50898
formant,50898
ribonucleoside,50898
Chittagong,50898
SCOP,50898
Verrucomicrobia,50898
open cluster,50898
oligoclonal bands,50898
SMA type I,50898
Husserl,50898
diazotroph,50898
transmission-based precautions,50898
lambda phage,50898
excess emission,50898
atmospheric stability,50898
Arrhenius,50898
denaturation,50898
Pellegrin,50898
dissociation energy,50898
evaporative cooling,50898
hypotonic,50898
auxotrophic,50898
SMILES,50898
halofantrine,50898
tetanus toxoid,50898
Seropositivity,50898
xantphos,50898
Nextera,50898
Pharmacogenomics,50898
vasopressors,50898
5-HT3,50898
phylotype,50898
positive semidefinite,50898
methylation-specific PCR,50898
deeper understanding,50898
neuronal ceroid lipofuscinosis,50898
metagenomic,50898
dimensional reduction,50898
open surgical approach,50898
platelet-activating factor,50898
abnormal uterine bleeding,50898
Germanic,50898
Microseris scapigera,50898
K-type,50898
respirator,50898
MART-1,50898
Experimental Brain Research,50898
conditionalities,50898
repeat unit,50898
ND6,50898
sternum,50898
autoimmune haemolytic anaemia,50898
ice sheet model,50898
basement membrane,50898
isopropyl,50898
capacitance,50898
compound Poisson process,50898
menstrual cycle,50898
Eastern Cooperative Oncology Group,50898
Content analysis,50898
Fabaceae,50898
"1-chloro-2,4-dinitrobenzene",50898
Krishna River,50898
Palmer Station,50898
continuous positive airway pressure,50898
mathematician,50898
polyphosphate,50898
induced fit,50898
brassicasterol,50898
Transferrin,50898
shock wave lithotripsy,50898
ArcGIS,50898
ninety-eight,50898
stromal cell,50898
stochastic trend,50898
peripheral benzodiazepine receptors,50898
isogenic,50898
Stronger,50898
B-1,50898
MHP,50898
Interleukin 10,50898
Eurostat,50898
immunocytochemistry,50898
aldol,50898
corn stover,50898
Jeroen Bosch,50898
UCF,50898
Biol Chem,50898
helicity basis,50898
mendelian randomization,50898
cytopathology,50898
dactylitis,50898
BMBF,50898
stellar atmosphere,50898
EzrA,50898
Flores Island,50898
model theory,50898
Land management,50898
muon neutrino,50898
Apc,50898
DS50,50898
mitogen-activated protein kinases,50898
causal reasoning,50898
exome sequencing,50898
binomial distribution,50898
emphysema,50898
thermal subsidence,50898
linkage disequilibrium,50898
common law systems,50898
isofagomine,50898
2-oxoglutarate,50898
deoxypyridinoline,50898
cyanate,50898
guanidine hydrochloride,50898
Cartesian,50898
antiparkinsonian,50898
sarcomere,50898
reengineering,50898
polynomial interpolation,50898
M-mode,50898
intersystem crossing,50898
parahippocampal,50898
stumps,50898
Miami,50898
interdisciplinarity,50898
paraffin wax,50898
titration,50898
elutriation,50898
prothrombin time,50898
trephine,50898
Iberian Peninsula,50898
inverse temperature,50898
Pacific Ocean,50898
The Linnean Society,50898
GRB 060614,50898
spline interpolation,50898
autonomic dysfunction,50898
consumer behaviour,50898
micro-X-ray fluorescence,50898
IL18RAP,50898
Total Design,50898
poisson regression,50898
continuous-wave laser,50898
subcutaneous implant,50898
InChI,50898
MALDI-ToF,50898
zenith angle,50898
Gerwani,50898
sexually dimorphic,50898
statistically consistent,50898
multicystic dysplastic kidney,50898
Mental distress,50898
Density Functional Theory,50898
extreme points,50898
Antigen,50898
Euler angles,50898
evolutionary search,50898
Regge,50898
butadiene,50898
Oracle,50898
vitamin B12,50898
martingale,50898
fine structure constant,50898
ionize,50898
radiographer,50898
vasculitides,50898
mPower,50898
HBeAg,50898
muscle fiber,50898
myocardial reperfusion injury,50898
NYHA,50898
comparator,50898
intracranial bleeding,50898
WMS,50898
Barium,50898
back-donation,50898
erector spinae,50898
Nanoindentation,50898
blepharospasm,50898
mesostigmatic,50898
meander,50898
spinal tap,50898
magnetic charge,50898
ATCT,50898
multi-angle light scattering,50898
porous media,50898
F test,50898
recrystallization,50898
S0 galaxy,50898
ceramic,50898
WLS,50898
Isoprenaline,50898
chelates,50898
osseointegration,50898
logistic equation,50898
Giglio,50898
ITGB4,50898
amine fluoride,50898
SN 1998bw,50898
muscle relaxants,50898
equivalence principle,50898
Stokes problem,50898
Munster,50898
USSR,50898
basic reproduction number,50898
box model,50898
D negative,50898
Wakita,50898
Salinas,50898
epothilone B,50898
factorial design,50898
photoprotection,50898
Ageline,50898
discrete event simulation,50898
clopamide,50898
extravasation,50898
photoactivation,50898
pound,50898
Broiler,50898
copolymerization,50898
relative purchasing power parity,50898
Hellenic,50898
urinary bladder,50898
common time,50898
presynaptic neuron,50898
iterative method,50898
gamma phase,50898
interventional radiologists,50898
breast reduction,50898
hot electron,50898
parenting styles,50898
topological string,50898
phylogenetic diversity,50898
Dermatophagoides pteronyssinus,50898
resultative,50898
niqab,50898
noncentrosymmetric,50898
superadditive,50898
psychoeducation,50898
hydrogen-atom,50898
EPHE,50898
enzyme assay,50898
vertebral column,50898
mycelium,50898
erythrocyte sedimentation rate,50898
diachronic,50898
osmolal gap,50898
duodenal ulcer,50898
ALMA,50898
UNAIDS,50898
Dexcom,50898
self-organization,50898
Forearm,50898
modus operandi,50898
M11,50898
London penetration depth,50898
association mapping,50898
anal sphincter,50898
Abbasi,50898
liquefaction,50898
necrosectomy,50898
memory management,50898
hyperkeratotic,50898
Vital signs,50898
warfarin,50898
impaction,50898
Malignancy,50898
Min,50898
medium theory,50898
Holmes,50898
stylized facts,50898
quadriceps muscle,50898
endocervical curettage,50898
decidedly,50898
protoplanet,50898
electromyograms,50898
Translocation,50898
osteopetrosis,50898
tyrosinase,50898
ESPN,50898
BrainSCAN,50898
nested PCR,50898
PIM1,50898
isotonic,50898
post-mortem examination,50898
intratracheal,50898
interleukin-3 receptor,50898
total language,50898
approximant,50898
Nevus,50898
Sylvia curruca,50898
cyhalothrin,50898
dendrochronologically,50898
commodity chain,50898
hiatal hernia,50898
urinary frequency,50898
type 16,50898
island biogeography,50898
doubly labeled water,50898
CuO,50898
GMT,50898
Derlin-1,50898
Thiamine,50898
base rate,50898
Cmax,50898
making contact,50898
In step,50898
lof,50898
respirometry,50898
human leukocyte antigens,50898
river basin,50898
species traits,50898
Elbe,50898
pervasive developmental disorder,50898
The weight,50898
Institutional Review Board,50898
Nebulized,50898
hip joint,50898
UPGMA,50898
Eley-Rideal mechanism,50898
Talaromyces,50898
mu rhythm,50898
infinitary logic,50898
fundamental matrix,50898
K-Ar,50898
energy storage,50898
SR protein,50898
clinical attachment loss,50898
generalized functions,50898
methanethiol,50898
p21CIP1,50898
Fechner,50898
foil,50898
Paleogene Period,50898
immune thrombocytopenia,50898
Multiple choice,50898
Malta Island,50898
allyl alcohol,50898
tendinosis,50898
Almost perfect,50898
disk diffusion,50898
sensorineural,50898
NCEP,50898
glume,50898
image scanning,50898
First-line treatment,50898
dynamic light scattering,50898
dysarthria,50898
azole,50898
many-body,50898
OSI,50898
polariton,50898
Illumina,50898
semen analysis,50898
splenium,50898
BDP,50898
M87,50898
Ccl19,50898
injection molding,50898
agreeableness,50898
anomalous magnetic moment,50898
illocutionary force,50898
protostellar,50898
genetic disease,50898
Israeli settlers,50898
symbiotic binary,50898
Michaelis-Menten kinetics,50898
Enterobacter,50898
piston,50898
hyperbolic function,50898
Alphen,50898
procedural knowledge,50898
stigmasterol,50898
diffeomorphism,50898
social cognition,50898
defibrillation,50898
supraorbital nerve,50898
Histologically,50898
Cs-137,50898
TsN3,50898
accelerating universe,50898
functional group,50898
dielectric constant,50898
plasticizer,50898
soil pore,50898
CCR3,50898
two-party,50898
DICOM,50898
bootstrapping methods,50898
endocrine disrupting chemicals,50898
middle frontal gyrus,50898
N155,50898
talc,50898
Fibrin,50898
transaction cost,50898
spina bifida,50898
marketisation,50898
rill,50898
somatic embryogenesis,50898
tumescence,50898
testicular inflammation,50898
nitro group,50898
Notch ligand,50898
mucositis,50898
acid-base chemistry,50898
retention factor,50898
knot,50898
Poisson geometry,50898
hemoconcentration,50898
globi,50898
definity,50898
Semen analysis,50898
Bose-Einstein condensates,50898
family caregivers,50898
NGC 2060,50898
nanomolar,50898
single scattering albedo,50898
electric flux,50898
Leishmaniasis,50898
Racemic,50898
information-theoretic,50898
edibility,50898
creating opportunities,50898
ordered phase,50898
Markov chain,50898
Cannabinoid,50898
repetition time,50898
caustics,50898
SNARE complex,50898
diastolic dysfunction,50898
guira cuckoo,50898
field guide,50898
age-standardized,50898
.sr,50898
Pebas formation,50898
The lifestyle,50898
hyperaemia,50898
European VLBI Network,50898
condensation reaction,50898
MCPBA,50898
The membranes,50898
population attributable risk,50898
reminder software,50898
serosal,50898
identified patient,50898
ENU,50898
supraclavicular,50898
Hipparcos,50898
postpartum period,50898
isomerase,50898
first-order approximation,50898
dipeptidyl peptidase-4,50898
devolution,50898
TLR1,50898
sarin,50898
food intolerance,50898
ice age,50898
IELTs,50898
nuclear magnetic resonance (NMR) spectroscopy,50898
GRE,50898
Volition,50898
Brain cancer,50898
isobutyl,50898
systemic risk,50898
conditionally independent,50898
synchronicity,50898
sensory cortex,50898
Pre-eclampsia,50898
policy networks.,50898
invasive candidiasis,50898
Lazarus,50898
Diplopia,50898
predator-prey model,50898
Mass spectrometry,50898
WIA,50898
mycorrhizal,50898
Honesty-Humility,50898
Amaranthus cruentus,50898
cooling pads,50898
Gioia,50898
Somatic mosaicism,50898
Geodesign,50898
ImageJ,50898
informal learning,50898
immunosuppressive therapy,50898
classical conditioning,50898
bipolar depression,50898
stopwatch,50898
Drosophila melanogaster,50898
Hemodialysis,50898
public sphere,50898
ELU,50898
Stochastic,50898
Methotrexate,50898
design choice,50898
semantic interoperability,50898
life cycle assessment,50898
Sleep problems,50898
route choice,50898
Photodissociation,50898
Subsurface flow,50898
extracellular vesicles,50898
child sexual abuse,50898
clavicle,50898
Immunoglobulin G,50898
Dyscalculia,50898
eHealth,50898
population aging,50898
Attachment theory,50898
streaming media,50898
concave function,50898
Bipolar disorder,50898
Cardiac surgery,50898
system model,50898
Irreversible electroporation,50898
African Humid Period,50898
online dating,50898
white phosphorus,50898
Mendel,50898
media violence,50898
Temporal lobe epilepsy,50898
recursive algorithm,50898
Laser Interferometer Gravitational-wave Observatory (LIGO),50898
surveillance-industrial complex,50898
emotional disorder,50898
cyclopentadienyl,50898
Hepatocellular carcinoma,50898
shared decision making,50898
mental factors,50898
Non-alcoholic steatohepatitis,50898
bevacizumab,50898
biogas,50898
global financial crisis,50898
Nontuberculous mycobacteria,50898
Lorentz,50898
auto-ethnographic,50898
development aid,50898
Romantic,50898
System identification,50898
Uterus,50898
Animal welfare,50898
Brisk,50898
iTUG,50898
Human serum albumin,50898
economic mobility,50898
contact dermatitis,50898
clathrate,50898
traffic intensity,50898
diabetes care,50898
Renewable Fuel Standard,50898
Bruxism,50898
perlocutionary,50898
polyphony,50898
pupillometry,50898
Autism spectrum disorder,50898
Pulmonary arterial hypertension,50898
Zen,50898
frontotemporal dementia,50898
pharmacovigilance,50898
continuous-time Markov chain,50898
feedforward,50898
Persuasion,50898
Frail,50898
anthropogenic climate change,50898
Labour,50898
spectral clustering,50898
Cerebrospinal fluid,50898
SUMO,50898
hemodiafiltration,50898
Radiative decays,50898
TMDs,50898
Frailty,50898
subreption,50898
motor imagery,50898
teacher retention,50898
Vigeland,50898
Chemokine receptors,50898
humanized antibody,50898
quantitative proteomics,50898
phosphinidene,50898
South Atlantic,50898
Myasthenia gravis,50898
autarky,50898
hypovitaminosis D,50898
The Endocrine Society,50898
European Food Safety Authority (EFSA),50898
Carnivorous plants,50898
ECtHR,50898
glucagon-like peptide-1,50898
vestibular,50898
speech recognition,50898
Delphi study,50898
sclerostin,50898
subarachnoid hemorrhage,50898
sphingosine,50898
double-lumen endobronchial tube,50898
Faraday cup,50898
Eye movement,50898
Ipilimumab,50898
implant stability quotient,50898
intact forest landscapes,50898
medically unexplained physical symptoms,50898
medical food,50898
Natural orifice transluminal endoscopic surgery,50898
Skeletal muscle fibers,50898
Laparoscopic surgery,50898
Bcl-2 family,50898
program evaluation,50898
inguinal hernia,50898
universal jurisdiction,50898
evolutionary art,50898
temporomandibular disorder,50898
Alcohol dependence,50898
population ageing,50898
Henry Jenkins,50898
ventricular septal defect,50898
Dalitz plot,50898
vascular endothelial growth factors,50898
HERMES experiment,50898
FGC,50898
Rolling resistance,50898
sustainable products,50898
Bloomfield,50898
convertible,50898
price controls,50898
workplace deviance,50898
supply chain,50898
Nitroglycerin,50898
NOD1,50898
Glycosylation,50898
protected landscape,50898
alternative medicine,50898
Headache,50898
open format,18502
Sao Paulo,50898
Z-boson,50898
reaction-diffusion system,50898
Tendon transfer,50898
Total parenteral nutrition,50898
counterproductive work behavior,50898
Aruba,50898
pazopanib,50898
Chlorambucil,50898
Neurofilament,50898
Malignant,50898
allopurinol,50898
Congenital abnormalities,50898
Developmental delay,50898
S&P 500,50898
ICD-11,50898
Medically unexplained physical symptoms,50898
Chorion,50898
Antimony,50898
variational problems,50898
Awake,50898
health technology assessment,50898
stress concentration,50898
Sensory processing,50898
Consanguineous,50898
Tomosyn,50898
life cycle assessment (LCA),50898
semantic differential,50898
Extensor carpi radialis,50898
anaerobe,50898
Electric Cell-substrate Impedance Sensing,50898
Hypertrophic cardiomyopathy,50898
Juventae Chasma,50898
network management,50898
Nonnus,50898
Posttraumatic stress disorder,50898
Sexual selection,50898
polyelectrolyte,50898
Soil carbon,50898
olivine,50898
aldosterone-to-renin ratio,50898
In essence,50898
mental representation,50898
fluorosis,50898
segmental vitiligo,50898
silylene,50898
dietary supplements,50898
X(3872),50898
ZnO,50898
Bayesian vector autoregression,50898
behavioural ecology,50898
distant view,50898
non-Newtonian,50898
metazoans,50898
Polypyrrole,50898
TSPs,50898
Urban sprawl,50898
minor allele frequency,50898
Heme oxygenase,50898
Glioblastoma multiforme,50898
Salinosporamide A,50898
Total Hip Replacement,50898
Institutional Review Boards,50898
cyberspace,50898
mass extinction,50898
energy intensity,50898
femtosecond,50898
silanes,50898
Carnap,50898
open-ended question,50898
Bone disease,50898
sacroiliac joint,50898
orthosis,50898
MIME,50898
Market trend,50898
glutaric aciduria type 1,50898
software architecture,50898
ski jumping,50898
cooperative game,50898
granulin,50898
uveal melanoma,50898
particle identification,50898
DAM,50898
siliceous,50898
bioenergy,50898
Plastic debris,50898
Leprosy,50898
P-factor,50898
Catecholamine,50898
hyperthermic intraperitoneal chemotherapy,50898
Post-traumatic stress disorder (PTSD),50898
Structural health monitoring,50898
Dissection,50898
solution set,50898
Proprioception,50898
batch production,50898
Myelodysplastic syndromes,50898
multiperspective,50898
ELT,50898
SoMi,50898
Good governance,50898
water scarcity,50898
Dutch East India Company (VOC),50898
coplanar,50898
Hyperbole,50898
parasitism,50898
spastic,50898
Rhine River,50898
MRE,50898
phase II metabolism,50898
orographic,50898
water splitting,50898
childhood obesity,50898
electroconvulsive therapy,50898
ECJ,50898
Human papillomavirus,50898
chemical energy,50898
soil chemicals,50898
World Anti-Doping Agency (WADA),50898
collective bargaining,50898
social trinitarianism,50898
celebrity culture,50898
Manganese,50898
Self-Efficacy,50898
Egocentric bias,50898
Bradykinesia,50898
Angiogenesis,50898
diffuse intrinsic pontine glioma,50898
sacrococcygeal teratoma,50898
Mammalian Genome,50898
thin-film photovoltaic,50898
Homeostasis,50898
Uterine serous carcinoma,50898
Modern Portfolio Theory,50898
Barcin,50898
sulcus,50898
alibi,50898
homelessness,50898
cookstove,50898
implantable cardioverter defibrillator,50898
biliary atresia,50898
assistive technology,50898
Bisphenol A,50898
Bose-Einstein condensation,50898
myocardial perfusion imaging,50898
Marine Strategy Framework Directive,50898
evolutionary psychology,50898
Meridiani Planum,50898
large-cell lymphoma,50898
Cognitive deficit,50898
Bottleneck,50898
ICT,50898
non-photochemical quenching,50898
thermal imaging,50898
insanity,50898
negative campaigning,50898
Acetate,50898
torture,50898
Executive functions,50898
Habbo Hotel,50898
fetal echocardiography,50898
vocational education,50898
haematological malignancies,50898
UVR8,50898
MYM,50898
dystrophin,50898
Thuis,50898
informed decision,50898
Cyclic guanosine monophosphate,50898
job performance,50898
phototrophic biofilms,50898
high visibility,50898
Suspended Particulate Matter,50898
Brown adipose tissue,50898
biological aging,50898
Endoscopy,50898
chlorhexidine,50898
Self-rated health,50898
architecture documentation,50898
lunar science,50898
Guanidinoacetate methyltransferase deficiency,50898
Planarians,50898
CASP8,50898
Web services,50898
Kcnq1,50898
ecotoxicology,50898
Logistics management,50898
maxillofacial,50898
Genetic association,50898
South African Rugby Union,50898
Open data,50898
Active transport,50898
antimitotic agent,50898
iron deficiency anemia,50898
flexural strength,50898
iron deficiency,50898
Langerhans cell histiocytosis,50898
EMA,50898
DECT,50898
genetic patent,50898
firearm,50898
Standard International Trade Classification,50898
dividend yield,50898
Stem cell therapy,50898
S. media,50898
evidence-based practice,50898
nanosimilars,50898
Duchenne,50898
aldosterone,50898
Molecular imaging,50898
cryoturbation,50898
PHY,50898
ICRP,50898
personality psychology,50898
cone beam computed tomography,50898
Cabazitaxel,50898
advance directive,50898
ventriloquism,50898
methyltransferase,50898
personhood,50898
plant litter,50898
Human behavior,50898
Pelvic organ prolapse,50898
self-harm,50898
Wagenaar,50898
Cambodian French,50898
diadinoxanthin,50898
Lesson Study,18730
capital asset,50898
pulse oximetry,50898
microfinance,50898
BP oil spill,50898
leukoplakia,50898
Pilates,50898
odonates,50898
undocumented immigrant,50898
Mie scattering,50898
vaginoplasty,50898
photothermal therapy,50898
Golden Ratio,50898
orthoses,50898
Dual diagnosis,50898
noise induced hearing loss,50898
Creatine,50898
esophagectomy,50898
Social Psychology,50898
Tuberculous meningitis,50898
embryo selection,50898
Jacques Cujas,50898
Richard Florida,50898
Cognitive dysfunction,50898
social cost,50898
Tripeptidyl peptidase,50898
pellicle,50898
Vestibular,50898
Ankylosing spondylitis,50898
Leeds,50898
decision aids,50898
environmental governance,50898
Major depression,50898
tomograph,50898
positivist,50898
Kelvin probe,50898
self-construal,50898
European Space Agency,50898
extravascular space,50898
Disinfection,50898
short note,50898
Moon,50898
FM,50898
Febrile seizures,50898
spin-spin coupling,50898
Social exclusion,50898
morphological classification,50898
Polyunsaturated fatty acids,50898
Cobb-Douglas production function,50898
cognitive reappraisal,50898
agent-based,50898
face recognition,50898
permanent income hypothesis,50898
Cognitive Behavioural Therapy,50898
natural hazard,50898
Intrathecal,50898
The deposition,50898
flavor-changing neutral current,50898
Formal verification,50898
appendectomy,50898
road pricing,50898
squid,50898
virtual object,50898
NOE,50898
Transposable elements,50898
Flattening,50898
Afatinib,50898
cultural turn,50898
social distance,50898
Jacobian,50898
Crystal Ball function,50898
Shatsky Rise,50898
heat-shock proteins,50898
Anthropocene,50898
Stretch,50898
osteophyte,50898
free flap,50898
compactified,50898
periodontal disease,50898
Downhill skiing,50898
early 1990s recession,50898
imeglimin,50898
Lactococcus lactis,50898
Giardiasis,50898
primary hyperparathyroidism,50898
rugby union,50898
tai chi,50898
ataxic,50898
integrated reporting,50898
ecosystem service,50898
Liver cirrhosis,50898
ego depletion,50898
Facebook,50898
Temozolomide,50898
Soil moisture,50898
White spot,50898
quantitative phase,50898
Heidelberg Catechism,50898
solar radiation,50898
Meconium,50898
Osmium,50898
sustainable consumption,50898
apatite,50898
Shaun Nichols,22947
philia,50898
Amyloid,50898
tumour microenvironment,50898
Botulinum neurotoxin,50898
colistin,50898
Gaelic,50898
beamline,50898
spinal manipulative therapy,50898
GH deficiency,50898
Huai River,50898
signal processing,50898
intersubjectivity,50898
Heterozygous,50898
schedule delay,50898
PGI,50898
electrochemistry,50898
tipping points,50898
joint pain,50898
angiotensin-converting enzyme,50898
multiple myeloma,50898
Local Planning Authorities,50898
suicide prevention,50898
biobanks,50898
avoidant behavior,50898
slan,50898
medicinal chemistry,50898
social-ecological,50898
Infant exposure,50898
Sustainable agriculture,50898
1000 Genomes Project,50898
ergodicity,50898
Gastric cancer,50898
CNS drugs,50898
benzodiazepines,50898
bomb,50898
robot,50898
Intracellular pH,50898
supply chain sustainability,50898
Peer support,50898
conflict transformation,50898
Therapeutic hypothermia,50898
coronary sinus,50898
communicative approach,50898
Global Footprint Network,50898
CHBC,50898
spaceflight,50898
A&P,50898
RNA-seq,50898
observability,50898
Glucagon-like peptide-1,50898
Amplitude,50898
gender mainstreaming,50898
shared decision-making,50898
noncommunicable diseases,50898
intracerebral hemorrhage,50898
heat shock,50898
otorrhea,50898
subtyping,50898
Apheresis,50898
dyschezia,50898
Positron emission tomography,50898
Biomechanical,50898
Mindfulness-based cognitive therapy,50898
hawk-dove game,50898
Cognitive-behavioral therapy,50898
therapeutic relationship,50898
conjugate addition,50898
ionic liquid,50898
Mega-,50898
health claim,50898
non-renewable resource,50898
political corruption,50898
International Myeloma Working Group,50898
F-16,50898
indoor climbing,24546
Honesty-Humility (H),50898
irreversible electroporation,50898
Rhinophyma,50898
Granule cell,50898
baseball bat,50898
Chemical warfare,50898
Correlative light-electron microscopy,50898
cloud computing,50898
quantum chemistry,50898
general intelligence,50898
melphalan,50898
cryptogam,50898
oligopolistic,50898
Pentachlorophenol,50898
multiple chronic diseases,50898
Anxiety Disorder,50898
Neurocysticercosis,50898
gait analysis,50898
ecumenism,50898
drug abuse,50898
PKI,50898
human microbiome,50898
cycling time trials,50898
PROMIS,50898
GCOM-W1,50898
computable general equilibrium,50898
Optical Coherence Tomography (OCT),50898
mobile marketing,50898
Sharpe ratio,50898
food frequency questionnaire,50898
Cognitive behavioural therapy,50898
white-collar,50898
Carotid,50898
Strength training,50898
Antisocial behavior,50898
cohabitation,50898
bariatric surgery,50898
antitumor drug,50898
health concern,50898
frontal plane,50898
T50,50898
Anatolia,50898
pineoblastoma,50898
X-linked lymphoproliferative disease,50898
Arctic studies,50898
Glycated hemoglobin,50898
machining,50898
endocrine system,50898
roll,50898
Congenital hypothyroidism,50898
antimullerian hormone,50898
Coastal flood,50898
Ain River,50898
Kinect,50898
cochlear implant,50898
subwavelength,50898
EDA,50898
Rosetta project,50898
Infective endocarditis,50898
Nootkatone,50898
phonological loop,50898
Beck,50898
Psychological Science,50898
Emotional eating,50898
propel,50898
The tackle,50898
blood management,50898
anastomotic leakage,50898
Sky,50898
empirical method,50898
frame analysis,50898
geminal,50898
Catheter,50898
technical debt,50898
public university,50898
peri-implantitis,50898
open quantum system,50898
Social media,50898
ambrisentan,50898
TC works,18988
Pediatric Gastroenterology,50898
climate science,50898
Whooping cough,50898
Collateral,50898
Multiple myeloma,50898
sarcoidosis,50898
dye-sensitized,50898
human trafficking,50898
Photosynthesis,50898
germline mutation,50898
national capabilities,50898
exogenous administration,50898
Lenalidomide,50898
Impulse control disorders,50898
computer-aided diagnosis,50898
The scattering,50898
collective punishment,50898
Roseobacter,50898
Cleft lip,50898
Community health,50898
orofacial pain,50898
Late Iron Age,50898
Negishi cross-coupling,50898
Force spectroscopy,50898
carbon capture,50898
environmental tobacco smoke,50898
hepatitis E virus,50898
Brain-derived neurotrophic factor,50898
Freebase,50898
Waddlia,50898
SABRE,50898
motor learning,50898
Linked Data,50898
Knee osteoarthritis,50898
Amyloid-related imaging abnormalities,50898
Health Action Process Approach,50898
Perceived organizational support,50898
Political campaign,19026
defecation,50898
Bushman,50898
Histidine,50898
Myelin oligodendrocyte glycoprotein,50898
Early Miocene,50898
tetrapod,50898
counterfactual,50898
South Sudan,50898
Shared decision making,50898
Lean Six Sigma,50898
intensify,50898
orchid,50898
neuronavigation,50898
process calculi,50898
autoimmune hepatitis,50898
axial spondyloarthritis,50898
Neurosarcoidosis,50898
Liquefied Petroleum Gas (LPG),50898
CH3I,50898
traveling salesman problem,50898
dolomitized,50898
birth-death process,50898
IPF,50898
environmental chemistry,50898
suprascapular nerve,50898
Neurogranin,50898
Hemostasis,50898
Information technology,50898
task management,50898
tooth wear,50898
ine,50898
NpO,50898
Sensitivity analysis,50898
Electroconvulsive therapy,50898
radiative forcing,50898
Cefazolin,50898
AUTS2,50898
magnetic flux,50898
Retinoblastoma,50898
collectivistic,50898
Trichomonas,50898
habitus,50898
Botulinum toxin A,50898
WARM,50898
biobehavioral,50898
epimerization,50898
Bisphosphonates,50898
motor disorder,50898
cervical screening,50898
polygenic trait,50898
child protection,50898
Varroa destructor,50898
glenoid,50898
procedural memory,50898
personal health record,50898
Mycobacteria,50898
Arbuscular mycorrhizal fungi,50898
thromboelastometry,50898
Transcranial Magnetic Stimulation (TMS),50898
corporatist,50898
golf,50898
QUANTEC,50898
bioelectronic,50898
covariate,50898
mebendazole,50898
forestry,50898
Protein complex,50898
Diabetic retinopathy,50898
interval training,50898
euthanasia debate,50898
word problem,50898
Exercise therapy,50898
Neuroprotective,50898
Mercury,50898
Fluvoxamine,50898
RBBB,50898
field hockey,50898
postcoital test,50898
RNA-Seq,50898
SMAD2,50898
Human Papillomavirus,50898
Renewable energy,50898
optimal distinctiveness theory,50898
sequence learning,50898
John Cunningham,50898
motion sickness,50898
Cytology,50898
wireless sensor networks,50898
Cannabis,50898
Hallucinations,50898
ankle foot orthosis,50898
DSM IV,50898
sprue,50898
Eichmann,50898
rational choice theory,50898
central force,50898
glioblastoma multiforme,50898
virtual screening,50898
proteasome inhibitor,50898
Grey matter,50898
Global environmental governance,50898
Pentraxin,50898
cluster randomised controlled trial,50898
Amplitude Modulation,50898
pollination,50898
optic neuritis,50898
Environmental Impact Assessment,50898
admission control,50898
respiratory compensation,50898
Snakebite,50898
flavonoid,50898
unseen hand,50898
Batavian Revolution,50898
water stress,50898
mesiobuccal,50898
non-homogeneous Poisson process,50898
Morbid obesity,50898
blood lipid,50898
Albumin,50898
Bibliometric,50898
OMEX,50898
light reflex,50898
SORL1,50898
organizational change management,50898
rhodopsin,50898
accelerometry,50898
malware,50898
indirect pathways,50898
Transcranial direct current stimulation,50898
risk-based pricing,50898
Psychopathy,50898
Colorado,50898
counterparty,50898
extreme-right,50898
Gorn,60958
sticking coefficient,50898
Physical exercise,50898
Dutch East Indies,50898
SOLiD,50898
Fluorescence microscopy,50898
Van IJzendoorn,50898
enriched air nitrox,50898
street prostitution,50898
Airway management,50898
spoiler,50898
Cigarette smoking,50898
reinforcement learning,50898
age-related macular degeneration (AMD),50898
developmental coordination disorder,50898
sex development,50898
Richard Krajicek,50898
Flood insurance,50898
metagenomics,50898
Enchytraeus,50898
planetary boundaries,50898
urinary incontinence,50898
tension-type headache,50898
CBEs,50898
Orienteering,50898
Commensal,50898
dichalcogenide,50898
Obsessive compulsive disorder,50898
Fibromyalgia,50898
symbiosis,50898
Lucas,50898
oxygenic photosynthesis,50898
Green tea,50898
Benchmarking,50898
dengue fever,50898
Orgueil,50898
service-oriented architecture,50898
Low vitamin D,50898
castella,50898
Gait analysis,50898
cathelicidin,50898
EIF4G1,50898
ecumenical,50898
Menopause,50898
web development,50898
EPHA4,50898
cognitive-behavioral therapy,50898
grand strategy,50898
Ketamine,50898
Alfacalcidol,50898
Amyloid-beta,50898
Biomonitoring,50898
Bermuda,50898
Middle Palaeolithic,50898
marine protected areas,50898
soil carbon,50898
Lactoferrin,50898
venom,50898
3D ultrasound,50898
coprime,50898
Strontium,50898
retinotopic,50898
Topol,50898
General practice,50898
Crassostrea,50898
economic geography,50898
DSL,50898
ophthalmic artery,50898
SECI,19229
chronic lymphocytic leukaemia,50898
spectral radius,50898
Ph.D.,50898
Military deployment,50898
sexual differentiation,50898
Electronic sports,50898
Value-at-Risk (VaR),50898
Empathy,50898
fine-needle aspiration cytology,50898
P. aeruginosa,50898
Icariin,50898
Emanuel,50898
Garonne River,50898
segmentation processes,50898
molecular recognition,50898
gliding,50898
DNA database,50898
micrognathia,50898
overtraining,50898
psychiatric hospital,50898
CXC chemokine receptor,50898
Synaptotagmin,50898
sensemaking,50898
Middle Pleistocene,50898
calcium silicate,50898
congestion pricing,50898
Psoriatic arthritis,50898
amyloid plaques,50898
Open access publishing,50898
petrological,50898
Mary,50898
Galectin-1,50898
modem,50898
Deep Brain Stimulation,50898
Eastern Mediterranean,50898
Health extension,50898
exergaming,19266
European Space Agency (ESA),50898
compound library,50898
countably compact,50898
pez,50898
Preacher,50898
bioelectrical impedance analysis,50898
Phenotypic plasticity,50898
safety-critical,50898
Vancouver,50898
Resorcinol,50898
DSSs,50898
phosphoproteomics,50898
independent force,50898
elliptic PDEs,50898
molecular scattering,50898
wheelchair basketball,50898
galantamine,50898
Qualitative Comparative Analysis,50898
migraine treatment,50898
enucleation,50898
Mitotane,50898
melanomas,50898
Machine learning,50898
Isochronous,50898
Frey,50898
Primary ciliary dyskinesia,50898
Campylobacter fetus,50898
prosthetic heart valve,50898
vineyard,50898
anti-citrullinated protein antibodies,50898
De Nederlandsche Bank,50898
RAFAELA,50898
Permafrost,50898
heterospecific,50898
micellar electrokinetic chromatography,50898
mixing parameters,50898
catcher,50898
Joseph,50898
Fethullah Gulen,50898
Bevacizumab,50898
schwannomatosis,50898
climate engineering,50898
communication problems,50898
psychological contract,50898
volatile organic compounds (VOCs),50898
Semipelagianism,50898
Age-related macular degeneration (AMD),50898
cybercriminal,50898
Thecla,50898
Russian Orthodox,50898
Influenza-like illness,50898
epithelial-mesenchymal transition,50898
psoriatic arthritis,50898
Indian Ocean tsunami,50898
cetylpyridinium chloride,50898
Metachromatic leukodystrophy,50898
interstellar dust,50898
co-receptor,50898
obstetrics,50898
Benelux,50898
HDAC,50898
maxillary sinus,50898
hydrochemistry,50898
shotgun,50898
precautionary savings,50898
intestinal diseases,50898
energy conservation,50898
conflict management,50898
KK,50898
football,50898
Small World,50898
arbuscular,50898
Economic history,50898
activity tracker,50898
SecA,50898
motion capture,50898
adversarial collaboration,50898
affinity purification,50898
Monoclonal gammopathy,50898
Laser Interferometer Gravitational-wave Observatory,50898
Genesis,50898
monosaccharides,50898
handbike,50898
tauopathy,50898
regional development,50898
entrust,50898
methylome,50898
Cannabinoids,50898
Unintended pregnancy,50898
Indirect costs,50898
US dollar,50898
chronic liver disease,50898
wicked problem,50898
Granulite,50898
Social rejection,50898
toxic assets,50898
Plasmin,50898
Dioxins,50898
time lines,50898
Thessaly,50898
MIPs,50898
socially desirable responding,50898
polyphonic,50898
Nalmefene,50898
Intimate partner violence,50898
3D-printed,50898
hair loss,50898
metrizable space,50898
Habituation,50898
cystectomy,50898
limes,50898
Yogyakarta,50898
human feces,50898
educational neuroscience,50898
chemical sedimentary rock,50898
matrix Gla protein,50898
Spinal cord injury,50898
Neurolaw,50898
sequential search,50898
FTL,50898
childhood sexual abuse,50898
Chromosomal abnormalities,50898
radiopharmaceutical,50898
Water quality modelling,50898
Interdisciplinarity,50898
SCM,50898
tonoplast,50898
incentive-compatible,50898
neo-liberalism,50898
Sociology,50898
Electrocardiogram,50898
Relax,50898
Non-small cell lung cancer,50898
critical percolation,50898
Vitamin B12,50898
Afrocentric,50898
nucleolus,50898
Nasopharyngeal carcinoma,50898
Dysphoria,50898
situation awareness,50898
amyloid angiopathy,50898
handrail,50898
Young Finns,50898
Gaussian kernel,50898
inorganic chemistry,50898
leptomeningeal,50898
Osteonecrosis,50898
isotopologues,50898
microdosing,50898
Multiple Sequence Alignment,50898
Northeastern,50898
shift work,50898
ISCB,50898
capacity utilisation,50898
Probabilistic Soft Logic,50898
CPT symmetry,50898
amikacin,50898
Vitamin D deficiency,50898
uncoupling protein,50898
Splines,50898
relict,50898
Hypertrophic scar,50898
Ego depletion,50898
Oppositional defiant disorder,50898
CSCW,50898
orality,50898
Esophageal adenocarcinoma,50898
CSS,50898
nucleic acid,50898
ventricular outflow tract,50898
SSG,50898
Comm.,50898
cosmesis,50898
language structure,50898
Fluoride,50898
GAMT,50898
queueing network,50898
John Braithwaite,50898
Laser Interferometer Gravitational-Wave Observatory (LIGO),50898
natural language,50898
meta-studies,50898
Tricresyl phosphate,50898
Wood production,50898
phantom limb,50898
OT,50898
Wound healing,50898
A 62,50898
sweetened beverage,50898
radiopharmaceuticals,50898
makespan,50898
addition reaction,50898
Multinomial logistic regression,50898
spatial reasoning,50898
photocatalytic water splitting,50898
supermarket,50898
IFRS,50898
characteristic functions,50898
abiraterone,50898
Additive manufacturing,50898
Criegee intermediate,50898
benzamide,50898
Total Knee Arthroplasty,50898
Jumilla,50898
Molecular ecology,50898
Data envelopment analysis,50898
Short stature,50898
misfolded proteins,50898
Big data,50898
Proton pump inhibitors,50898
technology transfer,50898
biomedical scientist,50898
Fluoroscopy,50898
Voltage-gated potassium channel,50898
A vicious circle,50898
prima facie,50898
Willem Witteveen,23097
favelas,50898
Foreign body,50898
metabolite repair,50898
nitrilium,50898
Riccati,50898
Sex steroids,50898
oncolytic,50898
Protein kinase C (PKC),50898
Between rounds,50898
Social Anxiety Disorder,50898
skin cancer,50898
Natalizumab,50898
sleep disorders,50898
sea surface height,50898
Phragmites australis,50898
motile,50898
Personalized medicine,50898
Millennium Development Goal,50898
ADDS,50898
inter-rater,50898
Graciosa Island,50898
ice-sheet model,50898
Body Mass Index (BMI),50898
Impulsivity,50898
sexual harassment,50898
head-and-neck cancer,50898
perturbation analysis,50898
Ethnolect,50898
child functioning,50898
electrocorticography,50898
psychotropic drug,50898
Enterococci,50898
Adverse childhood experiences,50898
Postpartum haemorrhage,50898
industrial heritage,50898
Advance care planning,50898
Mathare,23239
black box,50898
Universal health coverage,50898
insecticide,50898
global governance,50898
land snail,50898
disruptive behavior disorder,50898
Molecular motor,50898
online poker,50898
intrathecal,50898
intangible asset,50898
decabromodiphenyl ether,50898
alcoholic beverage,50898
Carcinoma,50898
computer-adaptive test,50898
Patient-Reported Outcomes Measurement Information System,50898
Dar Es Salaam,50898
Atopic dermatitis,50898
PMS2,50898
Vitamin E,50898
RiskMetrics,50898
radiance,50898
Necrotizing enterocolitis,50898
Data integration,50898
Hermaphroditic,50898
Chromosomal translocation,50898
Anticipation,50898
allosterically,50898
Cold plasma,50898
Furan,50898
Yeast,50898
sagittal plane,50898
Acute myeloid leukaemia,50898
azetidine,50898
transect,50898
sojourner,50898
Type 1 diabetes mellitus,50898
thyroidectomy,50898
quinazolinone,50898
abatacept,50898
longevity risk,50898
articular cartilage repair,50898
dysthymic,50898
The Orphan,50898
IPTS,50898
organophosphate,50898
transient ischaemic attack,50898
M&A,50898
civil engineering,50898
renin-angiotensin system,50898
Trastuzumab,50898
Hysterectomy,50898
motor skill,50898
invasive species,50898
major depressive episode,50898
Glutamatergic,50898
Streptomyces,50898
Green waste,50898
photosynthetic activity,50898
ABC transporters,50898
National Hospital Insurance Fund,50898
Intubation,50898
Borderline,50898
Apical periodontitis,50898
nilotinib,50898
dietary supplement,50898
neonatal cholestasis,50898
vasomotion,50898
generalized anxiety disorder,50898
triceps surae muscle,50898
pulmonary alveolar microlithiasis,50898
Adaptive Cruise Control,50898
Sexual differentiation,50898
Tyrosine kinase inhibitors,50898
Neglected tropical diseases,50898
k-mer,50898
Toledo,50898
active video game,50898
Epistasis,50898
spinothalamic pathway,50898
cardiac resynchronization therapy,50898
linear programming,50898
HELIUS,50898
tricuspid valve,50898
weight-for-age,50898
upper cervical,50898
daratumumab,50898
Plastic surgery,50898
Monomac,50898
thrombolytic therapy,50898
Oswestry Disability Index,50898
MRI brain scan,50898
PDA,50898
lenalidomide,50898
digital enhanced cordless telecommunications,50898
AD biomarkers,50898
shoulder problems,50898
externalism,50898
phalloplasty,50898
vaginal delivery,50898
PLM,50898
bacterial flora,50898
AMOC,50898
El Kef,50898
QBA,50898
boreal forest,50898
CBE,50898
RER A,50898
Serialism,50898
Malathion,50898
epithelialization,50898
natural bond orbital,50898
O-glycan,50898
sustained release,50898
FSRS,50898
CSVD,50898
network effects,50898
LHCb Collaboration,50898
Presenilin,50898
hexachlorobenzene,50898
Kaunas,50898
scoring functions,50898
Functional connectivity,50898
Mycobacterium haemophilum,50898
SHOX,50898
flox,50898
Tokyo,50898
decomposer,50898
abductor pollicis brevis muscle,50898
judo,50898
sigmoidoscopies,50898
HEMA,50898
O-6-methylguanine-DNA methyltransferase,50898
detailed balance,50898
meltwater,50898
pierid,50898
Schedule II,50898
Nepenthes,50898
angioimmunoblastic T-cell lymphoma,50898
lidar,50898
mirtazapine,50898
Presto,50898
NaOCl,50898
APOA1,50898
Symptom Checklist 90,50898
Ea,50898
a-stable,50898
recurrent miscarriage,50898
midwives,50898
TLR9,50898
mixture model,50898
Moraxella,50898
Ilgin,50898
Dar es Salaam,50898
function model,50898
sulfur dioxide,50898
Boston,50898
tomosyn,50898
Phragmites,50898
kerosene,50898
HO-1,50898
DMU,50898
tuff,50898
Tardos,50898
Ansatz,50898
IPCC,50898
icariin,50898
TD50,50898
iron deficiency anaemia,50898
Tetrastichus,50898
AmO,50898
Nash equilibrium,50898
VO2max,50898
euhedral,50898
PET/CT,50898
von Willebrand Factor,50898
unipolar depression,50898
TiN,50898
BMPR2,50898
geochronological,50898
NFPA,50898
LP,50898
Chlamydiales,50898
ring strain,50898
insular cortex,50898
MEN1,50898
CD117,50898
18F,50898
Green Paradox,50898
MUC5B,50898
N35,50898
RhoC,50898
Redfield,50898
phase lag,50898
C. fetus,50898
stepwise selection,50898
Lower Rhine region,50898
14-3-3 proteins,50898
nisin,50898
pi orbital,50898
Somatization,50898
RUV,50898
ScienceDirect,50898
quantum electrodynamics,50898
Turkish culture,50898
H2AX,50898
His-tag,50898
urban forest,50898
melt inclusions,50898
speech processing,50898
Metis,50898
opisthokont,50898
perihelion precession,50898
technological innovation system,50898
ESA,50898
glatiramer acetate,50898
ICBT,50898
PPM1A,50898
Cincinnati,50898
ASF1A,50898
brown garden snail,50898
minichromosome,50898
TSB,50898
D/A,50898
execution model,50898
Data Protection Directive,50898
general anaesthesia,50898
Monotonous,50898
augmentative,50898
Smoking cessation,50898
Advanced LIGO,50898
ectodomain,50898
social security agency,50898
Roman Catholics,50898
conditional logistic regression,50898
underdispersion,50898
Flesch-Kincaid,50898
STH,50898
cake,50898
peak inspiratory pressure,50898
DF,50898
contact angle,50898
emperipolesis,50898
U-238,50898
oropharyngeal cancer,50898
Fascioloides magna,50898
gemtuzumab ozogamicin,50898
yen,50898
ultrafiltrate,50898
propionyl-CoA carboxylase,50898
synaptotagmin,50898
lesser pelvis,50898
CAM,50898
structured light,50898
gonadectomy,50898
Moderate-Resolution Imaging Spectroradiometer,50898
fingolimod,50898
transnationalism,50898
BHS,50898
telemedicine,50898
PDL,50898
geoarchaeologists,50898
DEIA,50898
GCN,50898
HIPEC,50898
Hunter,50898
unit process,50898
Turku,50898
compostable,50898
neuropathologist,50898
cultural transmission,50898
The pupil,50898
3-methoxytyramine,50898
Open PHACTS,50898
ground reaction force,50898
DMD,50898
fine needle aspiration cytology,50898
white paper,50898
stochastic volatility,50898
apple,50898
auxotroph,50898
Feces,50898
e-Health,50898
surgical mesh,50898
Cord blood,50898
RTX,50898
consolidation therapy,50898
NKX6-2,50898
Stroop test,50898
escala,50898
DICER1,50898
sexual reproduction,50898
sea ice,50898
cephalic presentation,50898
sphingolipids,50898
Cytoscape,50898
microliter,50898
ISCO,50898
SU(3),50898
North Sumatra,50898
fluorine-18,50898
adult ADHD,50898
UGT1A3,50898
hypertonic,50898
Lipoprotein,50898
palindromic,50898
Serological studies,50898
wave-energy,50898
Sex hormone-binding globulin,50898
manic episode,50898
volume overload,50898
inverse dynamics,50898
fuel cell,50898
LMF,50898
interactional justice,50898
composite endpoint,50898
photoinduced electron transfer,50898
PRS,50898
leaded gasoline,50898
cobertura,50898
lymphedema,50898
recursive partitioning,50898
Morse homology,50898
Midrash,50898
devolvement,50898
TPP2,50898
correlative light-electron microscopy,50898
DGC,50898
CpG islands,50898
cytotoxic agent,50898
circularly polarized,50898
hyperbaric chamber,50898
core inflation,50898
primary miRNA,50898
fascicle,50898
CT-scan,50898
nucleobase,50898
mC,50898
SSE,50898
trametinib,50898
explanatory variable,50898
buoyant force,50898
Hindlimb,50898
social learning theory,50898
hemagglutinin,50898
foetus,50898
PROSPERO,50898
keloid,50898
life table,50898
Morning stiffness,50898
Penman-Monteith,50898
indocyanine green,50898
TNT,50898
"Zanjan, Iran",50898
shield volcano,50898
SEX,50898
anaerobic threshold,50898
zip code,50898
cisterna magna,50898
CD138,50898
elastance,50898
posterior segment,50898
binary black hole,50898
diplopia,50898
McRoberts,50898
rhinosinusitis,50898
hypoallergenic,50898
CD38,50898
radio noise,50898
Pliocene,50898
guanfacine,50898
general relativity,50898
high spin,50898
IRE,50898
EQA,50898
chronic wound,50898
esophageal perforations,50898
DMN,50898
renin,50898
peer-reviewed,50898
sodium MRI,50898
Markus Schwaninger,50898
capsular contracture,50898
Nephrops norvegicus,50898
pollinator,50898
voltammetry,50898
LFP,50898
AgNO3,50898
Collaborative care,50898
potential natural vegetation,50898
Light therapy,50898
nodal plane,50898
TbHL,50898
toenail,50898
soil management,50898
phenomenological model,50898
L-citrulline,50898
Western States Arts Federation,50898
TED spread,50898
chlorambucil,50898
RPA1,50898
variance swap,50898
Sound pressure level,50898
dietitian,50898
alloy,50898
TRT,50898
appetite loss,50898
rudstone,50898
insulin detemir,50898
ITH,50898
HCT116,50898
credible interval,50898
regulatory capital,50898
hazard function,50898
subtidal,50898
Gene expression profiling,50898
UCCA,50898
sustainability science,50898
Somnolence,50898
ESG,50898
subducting,50898
nystagmus,50898
extraterritorial,50898
applied energy,50898
pancolitis,50898
HT29,50898
DPP-4,50898
FeSO4,50898
array-comparative genomic hybridization,50898
freehand,50898
pruning,50898
monosomy,50898
incisional hernia,50898
Hutto,50898
PSD95,50898
Pictogram,50898
ventricular tachycardia,50898
major trauma,50898
Silylene,50898
panitumumab,50898
referee,50898
doto,50898
OE,50898
serotoninergic,50898
desensitisation,50898
muscle cross-sectional area,50898
Medicago,50898
Flexion,50898
leachate,50898
nutritional supplement,50898
dental implant,50898
scorpion,50898
bortezomib,50898
spss,50898
HLA-G,50898
WHIM,50898
Arthropod,50898
DEXA,50898
RDoC,50898
FRF,50898
ROSEL,50898
acromegaly,50898
RDs,50898
Eros,50898
SOST,50898
fovea,50898
beta strand,50898
Coccolith,50898
Virgin Islands,50898
environmental humanities,50898
HEDP,50898
hypochondriasis,50898
SOS,50898
Solar radiation,50898
S100B,50898
comet assay,50898
ACK,50898
blastocyst,50898
CDH,50898
Lut,50898
W3C,50898
non-invasive airway management,50898
DGM,50898
postcentral gyrus,50898
macroglobulinemia,50898
GR-9,50898
liquid-based cytology,50898
amphibole,50898
intravitreal injections,50898
Tristan-Gough hotspot,50898
DGGE,50898
Statistical parametric mapping,50898
dolomite,50898
B-CLL,50898
quadrupole time-of-flight,50898
RTV,50898
Rap1a,50898
Matrix-assisted laser desorption/ionization,50898
sperm storage,50898
Lateral inhibition,50898
resorcinol,50898
disease distribution,50898
ethnic Chinese,50898
Common buzzard,50898
Inpp5d,50898
VigiBase,50898
liquid crystal,50898
Turin,50898
resection margin,50898
alpha2,50898
Obstetrics & Gynaecology,50898
Mab,50898
test-retest variability,50898
cabazitaxel,50898
carbogen,50898
mitotane,50898
Social group,50898
latitude,50898
Alqueria,50898
technology diffusion,50898
McConnell,50898
decision rule,50898
neovagina,50898
dyestuff,50898
pneumococcus,50898
Embryo,50898
International criminal law,50898
GIS,50898
SMARCB1,50898
tot,50898
public domain material,50898
coaxial,50898
Rayleigh,50898
DMC,50898
amplifier feedback,50898
E264,50898
tectonic block,50898
flatus,50898
Iodo,50898
entomophilous,50898
Medac,50898
FAZA,50898
ATG5,50898
Veneto,50898
inverse probability weighting,50898
hypoplastic left heart syndrome,50898
SO(4),50898
proton pump inhibitor,50898
exponential function,50898
SURG,50898
tunnel vision,50898
angiopoietin 2,50898
CBZ,50898
data pre-processing,50898
Clinical Dementia Rating,50898
stochastic approximation,50898
isostatic,50898
baroque,50898
ATRX,50898
ileostomy,50898
phosphate binders,50898
order statistic,50898
CAD/CAM,50898
Kasai,50898
G3,50898
deoxyguanosine,50898
Central Asia,50898
Milano,50898
PTX3,50898
supranuclear,50898
Soil salinity,50898
ACVR2A,50898
dental hygiene,50898
age-standardised,50898
Lithuanian,50898
color vision,50898
active labour market policies,50898
ADM,50898
andesite,50898
microdeletion,50898
MME,50898
umbilical vessels,50898
Artificial Neural Network,50898
philology,50898
ultracentrifugation,50898
overlap integrals,50898
cognitive disability,50898
number sense,50898
hypernatremia,50898
Physical fitness,50898
Abel,50898
CRTC1,50898
processed meat,50898
marine ecosystem,50898
global environmental governance,50898
FCS,50898
ROS1,50898
OSA,50898
S-glutathionylation,50898
National Health,50898
Lygeum spartum,50898
customer knowledge,50898
adjustment disorders,50898
chloral hydrate,50898
Hypopigmentation,50898
Th17,50898
PPTs,50898
contract law,50898
deltoideus,50898
PrP,50898
paranoia,50898
metronome,50898
social exclusion,50898
Fitbit,50898
halophyte,50898
discriminant analysis,50898
neurofeedback,50898
heat map,50898
vitamin K antagonist,50898
SRES,50898
thalidomide,50898
Porter,50898
MERIS,50898
sinigrin,50898
diester,50898
refractive surgery,50898
Bioconductor,50898
Prolog,50898
amyloid precursor protein,50898
cosmogenic nuclide,50898
NATO,50898
V-1,50898
molecular modeling,50898
biosimilar,50898
public domain,50898
dynamin,50898
CAIC,50898
Sway,50898
LC50,50898
Tygerberg,50898
IL13,50898
metabolic stability,50898
cross-platform,50898
DIAD,50898
high endothelial venules,50898
sclera,50898
observational learning,50898
incompressible,50898
KTP,50898
Hengelo,50898
IMes,50898
strain rate,50898
protamine,50898
spermatophore,50898
RDP,50898
Big Data,50898
HCN channel,50898
teriflunomide,50898
receptive fields,50898
AOD,50898
Zeste,50898
fluorite,50898
linear dichroism,50898
pediatric surgeon,50898
reproductive medicine,50898
flavour symmetry,50898
anomaly time series,50898
A-site,50898
parasitoid,50898
monetary policy,50898
Cosmc,50898
ordinal scale,50898
anhedral,50898
digital PCR,50898
CLUSTER,50898
myofibroblasts,50898
IGF1,50898
yttrium-90,50898
Killip class,50898
tsunami,50898
kyphosis,50898
piebaldism,50898
sugar-sweetened beverages,50898
tumour antigen,50898
ertapenem,50898
Chroococcidiopsis,50898
T-DNA,50898
baobab,50898
loyalty.,50898
Peng-Robinson,50898
Suaeda vera,50898
hydrothermal,50898
hematological cancer,50898
length measurement,50898
venipuncture,50898
pineal,50898
RNFL,50898
carbon flux,50898
ENSO,50898
Beck Anxiety Inventory,50898
PLWH,50898
Queen Elizabeth,50898
MMPR,50898
mania,50898
flow batteries,50898
chlamydial infection,50898
MEMS,50898
sports nutrition,50898
precipitin,50898
a612,50898
ENCODE,50898
CIO,50898
butterflies,50898
Veracruz,50898
Energy balance,50898
Dlg4,50898
mandibular fracture,50898
ABCB1,50898
6v6,50898
TMZ,50898
SPARQL,50898
amidase,50898
online focus group,50898
hookworm,50898
global climate model,50898
Plantar,50898
ESP,50898
endangered species,50898
P700,50898
Self-efficacy,50898
synchronized swimming,50898
PAL,50898
Neuropsychological tests,50898
scoria,50898
cmax,50898
betamethasone,50898
avatar,50898
pheophytin,50898
CCK-4,50898
Rubus chamaemorus,50898
scrum,50898
Tendon,50898
AAP,50898
channel migration,50898
complex I,50898
aqueous fluid,50898
sex trafficking,50898
inferior vena cava,50898
sitagliptin,50898
Luxembourg,50898
hexapod,50898
Fertit,50898
K10,50898
hippocampal sclerosis,50898
FANCJ,50898
SSH,50898
gap junction,50898
Interfacing,50898
microfossils,50898
IJssel,50898
hospital type,50898
dw,50898
diverticulum,50898
Burke,50898
CHW,50898
intraosseous,50898
QI,50898
rover,50898
Differential item functioning,50898
PDAC,50898
protist,50898
QIIME,50898
coprimary,50898
chromium,50898
non-ionizing,50898
Lea,50898
Kaplice,50898
morbid obesity,50898
periprosthetic,50898
cytoplasmic membrane,50898
demand function,50898
Medical specialties,50898
Menarche,50898
GBS,50898
mcr-1,50898
imago,50898
Gobbledygook,50898
conservation banking,50898
granulomatous disease,50898
Visage,50898
ice hockey,50898
phototoxicity,50898
palliative surgery,50898
TRPS,50898
agglomerate,50898
RhoB,50898
Diffusion tensor imaging,50898
RPD,50898
FAS,50898
OLE,50898
electronic nose,50898
ENT,50898
sample entropy,50898
axial skeleton,50898
shifting cultivation,50898
futile cycle,50898
Optimality Theory,50898
Clinician-Administered PTSD Scale,50898
magnetostratigraphy,50898
22 weeks,50898
shoulder joint,50898
Cntn4,50898
elimination rate constant,50898
metamorphism,50898
alveolar ridge,50898
health anxiety,50898
SCORE,50898
UAE,50898
Lautropia,50898
naupliar,50898
microporous,50898
LoC,50898
KOOS,50898
van der Waals,50898
DWI,50898
deep palmar arch,50898
Belvedere,50898
polymethylmethacrylate,50898
LMMs,50898
IDH2,50898
Soil pH,50898
anti-sigma factor,50898
The crowns,50898
PReVENT,50898
tablet computer,50898
lathe,50898
Random Forest,50898
biodistribution,50898
proton nuclear magnetic resonance,50898
mortgage,50898
Institut Pasteur,50898
gastrectomy,50898
Craven Week,50898
Fitzroy,50898
coronary artery bypass surgery,50898
tobramycin,50898
UGT1A4,50898
hygiene hypothesis,50898
Kistler,50898
bipolar illness,50898
Antisocial,50898
poison centers,50898
troxacitabine,50898
long-range order,50898
Syt1,50898
normal fault,50898
probability density,50898
pumice,50898
c-Met,50898
composting,50898
Respiration,50898
lateral inhibition,50898
Deciduous,50898
Tinbergen Institute,50898
bladder neck,50898
afatinib,50898
Gabriel graph,50898
weighted network,50898
FCGR2A,50898
photosynthetic efficiency,50898
RPMI,50898
3SLS,50898
Enterococcus faecalis,50898
Jurkat cells,50898
cardiac glycoside,50898
In silico,50898
person-centered care,50898
RANK,50898
23S,50898
MHC II,50898
cell adhesion molecules,50898
total iron-binding capacity,50898
imaging biomarker,50898
Nepenthes mirabilis,50898
RECIST,50898
bovine serum albumin,50898
microlitre,50898
kinase inhibitor,50898
occipital cortex,50898
Grignard reaction,50898
fellowship,50898
exotropia,50898
lytic,50898
MECA,50898
umbilical cord,50898
Echocardiography,50898
transwomen,50898
histone H3,50898
lymphoproliferative disorders,50898
volcano,50898
TRL,50898
Contracture,50898
homeobox,50898
University Hospital,50898
foraminifers,50898
de novo transcriptome assembly,50898
macular hole,50898
Brussels Capital Region,50898
dinoflagellate,50898
Klotho,50898
kyphoscoliosis,50898
liverworts,50898
CpG island,50898
vaginal ring,50898
Weir formula,50898
Discoaster,50898
tumor antigen,50898
WMA,50898
axial coding,50898
fistulotomy,50898
Fluorodeoxyglucose,50898
circumscribed,50898
DNA adduct,50898
twelve months,50898
expected return,50898
Nordic countries,50898
tadalafil,50898
ADAMTS17,50898
pyridoxal,50898
IG,50898
fluid dynamics,50898
contact force,50898
capital market,50898
Blomberg,50898
clinopyroxene,50898
Cooperative Group,50898
factor Xa inhibitors,50898
non-binary gender,50898
temozolomide,50898
geochemical modeling,50898
IL-17F,50898
O-glycosylation,50898
organizational learning,50898
Edema,50898
epoxy,50898
audite,50898
water fleas,50898
Heidelberg,50898
Agilent,50898
arc volcanism,50898
psychoanalytic theory,50898
secondary metabolism,50898
RS-3,50898
Grignard reagents,50898
linearly polarized,50898
general social survey,50898
schistosomiasis,50898
Lymphoma,50898
NPTs,50898
enrichment analyses,50898
octahedra,50898
Armenia,50898
Somali,50898
cinacalcet,50898
biomechanics,50898
strontium,50898
cruise ship,50898
laminectomy,50898
VMI,50898
septal pore,50898
phosphatidylserine,50898
bacteriophage,50898
SKAT,50898
TYK2,50898
convex minimization,50898
somatization,50898
medac,50898
resampling,50898
stochastic systems,50898
time-constant,50898
air mass,50898
MALDI,50898
deletion mutation,50898
tarsometatarsal joints,50898
UCLA,50898
maximum force,50898
Anonymous,50898
vision loss,50898
calculated risk,50898
gabbro,50898
dat,50898
Single Nucleotide Polymorphism (SNP),50898
subalpine,50898
compartmental models,50898
The focus group,50898
DTS,50898
glycopeptides,50898
LEAFY,50898
anti-social behaviour,50898
menudo,50898
setipiprant,50898
wavefunction,50898
generalized linear models,50898
cerebral spinal fluid,50898
cross-link,50898
anti-diabetic drug,50898
difference-in-differences,50898
Max Planck,50898
Salicornia,50898
GMV,50898
eros,50898
Acarina,50898
ephedrine,50898
mechanotransduction,50898
compulsive behavior,50898
forebrain,50898
carbon nanotubes,50898
aortic valve,50898
786-O,50898
metric space,50898
Restylane,50898
press fit,50898
Chicxulub,50898
Winspit,50898
bundle branch block,50898
image registration,50898
human skull,50898
Contagion,50898
Kisumu,50898
IKZF1,50898
GluA1,50898
ANG2,50898
hyperspectral,50898
Deming regression,50898
axitinib,50898
neXtProt,50898
diuron,50898
Tuscan,50898
Pangasius,50898
forest management,50898
schizoaffective disorder,50898
CBCT,50898
MVT,50898
thoracic spine,50898
KSK,50898
symbiont,50898
volcanic complex,50898
Massilia,50898
FreeSurfer,50898
calcaneus,50898
Cornu aspersum,50898
CXCR1,50898
eustatic,50898
cyclotrimerization,50898
intrathecal administration,50898
game theory,50898
martial art,50898
acromioclavicular,50898
Sherpas,50898
supination,50898
data envelopment analysis,50898
Buteo,50898
ascertainment bias,50898
Mediterranean diet,50898
H-NS,50898
overdispersion,50898
thermohaline circulation,50898
trefoil,50898
relative validity,50898
STEM,50898
omega-6,50898
mind wandering,50898
CXCR3,50898
Arno,50898
ELP2,50898
HLA-E,50898
trade mark,50898
mental chronometry,50898
nanotubes,50898
coarctation,50898
CP24,50898
myocardial contractility,50898
choroid plexus,50898
KERA,50898
externalist,50898
mycorrhizal roots,50898
constitutional symptoms,50898
ADE,50898
spermatogenic,50898
trastuzumab,50898
Handedness,50898
hepatitis E,50898
thermocline,50898
HOMO,50898
blade,50898
ductal carcinoma,50898
microsimulation,50898
North Atlantic Deep Water,50898
cox models,50898
electrocatalyst,50898
alpha-fetoprotein,50898
The Normal,50898
Inner Mongolia,50898
Scorpius X-1,50898
GPX1,50898
frontotemporal lobar degeneration,50898
ONT,50898
galvanic skin response,50898
packstone,50898
endodontic,50898
abutment,50898
dexamethasone suppression test,50898
ice cap,50898
anastomosis,50898
ISIS,50898
La segunda,50898
PET-CT,50898
lung adenocarcinoma,50898
oxygen-15,50898
neuropil,50898
tympanostomy tubes,50898
tetrazolium chloride,50898
T790M,50898
FAI,50898
mechanical work,50898
adduction,50898
lomustine,50898
CMIP5,50898
CMA-ES,50898
zn,50898
40 minutes,50898
cabbage,50898
cefotaxime,50898
Motion Capture,50898
oligoribonucleotides,50898
parotid,50898
Lawton,50898
podoplanin,50898
alkoxy,50898
butter,50898
dark adaptation,50898
langerin,50898
mentalizing,50898
social vulnerability,50898
P39,50898
Epstein Barr virus,50898
pyrochlore,50898
pressure sores,50898
Luminex,50898
alanyl-tRNA synthetase,50898
peneplain,50898
DCI,50898
GnRH agonist,50898
Web-based training,50898
thalami,50898
Elytrigia,50898
lymphoscintigraphy,50898
cost driver,50898
nondestructive,50898
innate defense system,50898
optical fiber,50898
haemophilia A,50898
thiophenol,50898
MDF,50898
isochronous,50898
evergreen,50898
N-methyl-D-aspartate receptors,50898
electronic signature,50898
COX2,50898
toxicokinetics,50898
prosthetic limb,50898
antidiabetic drug,50898
South Caucasus,50898
recovery model,50898
sea surface temperature,50898
Spinacia oleracea,50898
potential evapotranspiration,50898
retinaldehyde,50898
cardiotocography,50898
EFEMP2,50898
carbon-11,50898
chromosome 11,50898
radiologist,50898
Microalbuminuria,50898
blue-tailed damselfly,50898
Web Analytics,50898
Jeju,50898
human genetic variation,50898
Etest,50898
TTH,50898
phosphatidylglycerol,50898
Slc26a3,50898
long-term experiment,50898
Grounded Theory,50898
GC content,50898
knowledge level,50898
import tariff,50898
LVM,50898
vertical migration,50898
hyperandrogenism,50898
body fat percentage,50898
salinosporamide,50898
Machiavellianism,50898
periodic motion,50898
esotropia,50898
lamotrigine,50898
peripheral vascular diseases,50898
item bank,50898
carrier frequency,50898
hilum,50898
keto,50898
Analgesic,50898
premature birth,50898
Melanin,50898
ophiolites,50898
full surface,50898
diabetic neuropathy,50898
Limonium,50898
Gynaecology,50898
polar desert,50898
longwave radiation,50898
UK Biobank,50898
Thulium,50898
p-benzoquinone,50898
Caspr,50898
preterm delivery,50898
transferrin saturation,50898
yoghurt,50898
C. trachomatis,50898
Scopus,50898
Moderated mediation,50898
Thermocline,50898
A431,50898
Eif2b5,50898
overpotential,50898
imperfectly,50898
criminal law,50898
valley stream,50898
FTLD,50898
migrastatin,50898
dual X-ray absorptiometry,50898
melanoma-associated antigen,50898
uniform electron gas,50898
negative reinforcement,50898
neuronal network,50898
orthopedic,50898
WHODAS,50898
intramuscularly,50898
Wasps,50898
gustatory,50898
Penn State University,50898
indirect inference,50898
CD74,50898
Provence,50898
CBD,50898
temporo-parietal junction,50898
DSD,50898
bargaining power,50898
Adansonia,50898
dinocysts,50898
unappreciated,50898
sexual identity,50898
LDL-cholesterol,50898
transport chain,50898
mammalian genome,50898
biologic agent,50898
prostatic urethra,50898
SMD,50898
chromosome 3,50898
hypotensive,50898
xenolith,50898
transmen,50898
quasinormal mode,50898
outwash fan,50898
Msh2,50898
interleukin 1,50898
bapineuzumab,50898
ldlr,50898
visual comparison,50898
nerve root,50898
Eriophorum vaginatum,50898
herbivory,50898
isotope fractionation,50898
diffractometer,50898
ibritumomab tiuxetan,50898
MCM2,50898
BLM,50898
vineyard soil,50898
aromatase inhibitor,50898
EIF2AK4,50898
high knee,50898
KSS,50898
Numbness,50898
granitoid,50898
Ain,50898
subsea,50898
RGS7,50898
NADH dehydrogenase,50898
GIF,50898
coronene,50898
venepuncture,50898
pain catastrophizing,50898
family planning,50898
Dieting,50898
ethicist,50898
copy number variation,50898
Oxford,50898
dentate nucleus,50898
ESM,50898
nonviolent game,50898
Brody,50898
TVU,50898
single blind,50898
gamma-glutamyl transferase,50898
fucosylated,50898
A1C,50898
water polo,50898
Wallonia,50898
RBMS1,50898
Hoogsteen,50898
Menton,50898
fixed parameter tractable,50898
directed acyclic graph,50898
pegylated liposomal doxorubicin,50898
Frontotemporal Dementia,50898
EOD,50898
foam cell,50898
iceberg,50898
Social cognition,50898
alanine transaminase,50898
Diastolic dysfunction,50898
tau protein,50898
vision rehabilitation,50898
wilderness,50898
GEO,50898
first-degree relative,50898
graph theory,50898
antipyretics,50898
tonic pupil,50898
Cologne,50898
Enterobacter cloacae,50898
vaginal swab,50898
non-central,50898
DNA extraction,50898
autobiographical memory,50898
BTN3A1,50898
ionisation potential,50898
producer surplus,50898
user friendliness,50898
wall F,50898
Shimadzu,50898
HAL,50898
NMe2,50898
periosteum,50898
chorioallantoic membrane,50898
Platelet-activating factor,50898
MS Amsterdam,50898
mammogram,50898
kestrel,50898
methyl iodide,50898
IL15,50898
FGF23,50898
conduction band,50898
East Flanders,50898
external cephalic version,50898
HIF1A,50898
M0,50898
DTM,50898
knock-out mice,50898
COL5A1,50898
antifouling,50898
FBI,50898
MTAN,50898
Oribatida,50898
wave model,50898
functional abdominal pain,50898
complete dentures,50898
Cuevas del Almanzora,50898
IL18,50898
porin,50898
Catalhoyuk,50898
conjugated system,50898
palaeogeographic,50898
offshore outsourcing,50898
Oligocene,50898
siltstone,50898
30b,50898
colitis ulcerosa,50898
werd,50898
FASLG,50898
Positron Emission Tomography (PET),50898
Archaean,50898
ganglion cell layer,50898
biopharmaceutical,50898
msw,50898
spindle poison,50898
electromagnetic interaction,50898
phosphotyrosine,50898
investment analysis,50898
dyscalculia,50898
enzyme kinetics,50898
SDP,50898
ONYX-015,50898
LA-ICPMS,50898
AD 59,50898
renal cancer,50898
tonic,50898
HRT,50898
W23,50898
eIF5A,50898
understory,50898
plaque size,50898
Reproducibility,50898
Mpc,50898
Dolomite,50898
BMP3,50898
SABR,50898
self-medication,50898
UGT1A6,50898
linked data,50898
Vigabatrin,50898
Androstenedione,50898
Social Security Agency,50898
myofibroblast,50898
PanNET,50898
independent set,50898
chromatin remodeling,50898
Roman army,50898
seed mass,50898
resource depletion,50898
keratin 10,50898
acetylator,50898
MBSR,50898
Alaska,50898
HFS,50898
national DNA database,50898
Samudra,50898
ovarian stimulation,50898
myosin-binding protein C,50898
cervical smear,50898
selectin,50898
trypsinogen,50898
hydroxyethyl starch,50898
LPG,50898
chimaera,50898
Ax,50898
RDB,50898
ravtansine,50898
beamforming,50898
mantle plume,50898
ecosystem respiration,50898
ergonomics,50898
Legendre polynomial,50898
laniquidar,50898
c-reactive protein,50898
cons.,50898
genetic modification,50898
clinical control group,50898
discrete optimization,50898
paleoclimate,50898
financial engineering,50898
GMP,50898
high-functioning autism,50898
dengue virus,50898
alpha smooth muscle,50898
M02,50898
primary aldosteronism,50898
epilepsies,50898
preimplantation diagnosis,50898
rolipram,50898
cycling trips,50898
glottic,50898
MMP-9,50898
Eisenia andrei,50898
MED1,50898
TCP,50898
cervical ripening,50898
external iliac artery,50898
palliative sedation,50898
quinol,50898
DMARD,50898
A498,50898
preadipocytes,50898
SLC6A8,50898
Ablation,50898
amblyopic,50898
PPH3,50898
vascular surgeon,50898
atlas,50898
pulse amplitude modulation,50898
DMAIC,50898
A. niger,50898
malonic aciduria,50898
Eulophidae,50898
clebopride,50898
Myroxylon,50898
model organism,50898
goiter,50898
GROA,50898
ATL,50898
carbaryl,50898
bruxing,50898
Geographic Information System,50898
lateral diffusion,50898
Nietzsche,50898
PTEN,50898
gadolinium-enhancing,50898
Human papilloma virus,50898
epithelial ovarian cancer,50898
liquid nitrogen,50898
hypergravity,50898
NCNG,50898
orthopaedic surgeon,50898
RDF,50898
faecal incontinence,50898
General Data Protection Regulation,50898
Nugent,50898
glycemia,50898
lava flow,50898
Keap1,50898
neuromuscular disorder,50898
trans-fat,50898
completely metrizable,50898
terminal performance,50898
Helicidae,50898
cemetery,50898
ecohydrology,50898
male circumcision,50898
Kolmogorov-Smirnov,50898
prepartum,50898
glucagon receptor,50898
pure tone,50898
fluctuating asymmetry,50898
uterine cavity,50898
gradient analysis,50898
atypical depression,50898
control data,50898
Parenting practices,50898
resource partitioning,50898
supraspinatus,50898
Hamburg,50898
Total organic carbon (TOC),50898
S. coelicolor,50898
yolk,50898
kieserite,50898
thermoregulation,50898
Hoagland solution,50898
rotenone,50898
cGMP,50898
3M ESPE,50898
cross-priming,50898
BCIS,50898
hematologic disorders,50898
Impetigo,50898
protected area,50898
crop residue,50898
life cycle analysis,50898
thulium,50898
electroretinogram,50898
TIE2,50898
Vecht,50898
AFO,50898
cyanine dye,50898
complementary experiments,50898
FRS,50898
VCR,50898
moult,50898
podiatrists,50898
Glasgow Outcome Scale,50898
T30,50898
system identification,50898
TNP,50898
Urinary incontinence,50898
regioselectivity,50898
lanatoside C,50898
green tea,50898
X inactivation,50898
myeloid progenitor cells,50898
waterlogging,50898
European Patent Office,50898
fluorescent-activated cell sorting,50898
muscle coactivation,50898
biogeography,50898
#P-hard,50898
ChIP-sequencing,50898
lobectomy,50898
JC virus,50898
light therapy,50898
euclidean distance,50898
chaparral,50898
metachromatic leukodystrophy,50898
pregnancy complication,50898
glutathione-S-transferase,50898
Philips Healthcare,50898
Kaplan-Meier curve,50898
CAGE,50898
cefepime,50898
Slovene,50898
cricket,50898
FRs,50898
data integration,50898
Voxel-based morphometry,50898
fission track,50898
Euclidean distance,50898
selachians,50898
Left atrial appendage,50898
STV,50898
lysyl hydroxylase,50898
dynamic hip screw,50898
brain neoplasms,50898
human papilloma virus,50898
ibrutinib,50898
TANK,50898
tris(2-chloroethyl) phosphate,50898
carcinoid,50898
SMAP,50898
LBC,50898
Netherlands Competition Authority,50898
social rejection,50898
IL1 alpha,50898
tivantinib,50898
expanded disability status scale,50898
cartridge,50898
W52,50898
DHEA,50898
Enzyme-Linked ImmunoSorbent assay (ELISA),50898
FBN1,50898
Oukoop,50898
TG2,50898
phenylmagnesium bromide,50898
microparticle,50898
graphics software,50898
cancellous bone,50898
open water swimming,50898
Medtronic,50898
mitochondrial respiratory chain,50898
clofazimine,50898
SSS,50898
gastric adenocarcinoma,50898
tufa,50898
lan,50898
phosphonate,50898
sphinganine,50898
polyvalent vaccine,50898
T-lymphocytes,50898
thioether,50898
C. rubecula,50898
B vitamins,50898
Radioiodine,50898
WMF,50898
Optical density,50898
EFI,50898
SIPOC,50898
Cystic Fibrosis,50898
Biomarker,50898
somatic maintenance,50898
Lyapunov exponent,50898
adipogenesis,50898
tectonic uplift,50898
dentures,50898
granulite,50898
marine isotope stage,50898
CCL22,50898
iliac bone,50898
lytic cycle,50898
Sedges,50898
Earthworm,50898
clobazam,50898
nephridia,50898
galectin-9,50898
outer nuclear layer,50898
Repeated measures,50898
sieve,50898
Study population,50898
FRAX,50898
Rhenium-188,50898
exegete,50898
life cycle costing,50898
EANM,50898
LIC,50898
phase contrast,50898
Bone density,50898
metatarsophalangeal joint,50898
CXCL11,50898
magnetic reversal,50898
professional identities,50898
ICAM1,50898
breadboard,50898
transradial catheterization,50898
Usumacinta River,50898
misoprostol,50898
lookback time,50898
coronary disease,50898
acenocoumarol,50898
OCN,50898
non-invasive ventilation,50898
MC3T3-E1,50898
ATG7,50898
sentinel node procedure,50898
LivaNova,50898
interaction network,50898
CCNE1,50898
capillary pressure,50898
PSMB8,50898
urge,50898
EAPC,50898
R-parity,50898
Suita,50898
PES.,50898
savanna,50898
geriatrics,50898
Ischnura,50898
LogMAR,50898
Lectin,50898
homophily,50898
ribitol,50898
DLK1,50898
Capecitabine,50898
RIMS1,50898
patient centered care,50898
Colocalization,50898
reference dose,50898
natural disaster,50898
trisodium citrate,50898
prenatal care,50898
non-governmental organization,50898
ipilimumab,50898
factor XIII,50898
valvular heart disease,50898
PNAS,50898
ITM2B,50898
entropy rate,50898
PROMs,50898
triptan,50898
carbon footprint,50898
electrophile,50898
Care Transition,50898
Herceptin,50898
LOA,50898
Natura 2000,50898
UST,50898
necropsy,50898
autophagosome,50898
viridiplantae,50898
gypsum,50898
Asia-Pacific,50898
freshwater snail,50898
JAXA,50898
Tau proteins,50898
NEWS,50898
flight deck,50898
duction,50898
K-39,50898
downy mildew,50898
amnioinfusion,50898
kBq,50898
Slc26a6,50898
NMe3,50898
bacterial persistence,50898
femto-,50898
waist-hip ratio,50898
probenecid,50898
vertebral fracture,50898
gamma-tocopherol,50898
asymmetric flow field flow fractionation,50898
interventional radiologist,50898
International Space Station (ISS),50898
paraesthesia,50898
NeuroIMAGE,50898
brain stem,50898
crizotinib,50898
senescent,50898
antibody-dependent cell-mediated cytotoxicity,50898
ribonucleoprotein,50898
sporozoite,50898
national health insurance,50898
Hindia,50898
val,50898
atomic absorption spectrophotometry,50898
THG,50898
parturition,50898
Arhangel,50898
Cytoplasm,50898
rifabutin,50898
SUCLG2,50898
H3K4me3,50898
gravidity,50898
TIMP-1,50898
Cellulitis,50898
hazard rate,50898
tariff,50898
morning stiffness,50898
hydroxyapatite,50898
Noorderkwartier,50898
whole-genome sequencing,50898
Stereotypy,50898
torno,50898
RNA extraction,50898
Thus Spoke Zarathustra,50898
GOS,50898
snack food,50898
Factor Analysis,50898
statics,50898
Gene Silencing,50898
ring finger,50898
crystal violet,50898
bistability,50898
size exclusion chromatography,50898
cis-regulatory,50898
Klebsiella oxytoca,50898
Eosinophilia,50898
DHT,50898
colostomy,50898
run-in period,50898
non-response bias,50898
magmatic differentiation,50898
aspartic proteases,50898
positive reinforcement,50898
coral reef,50898
alpha 6,50898
PROMPT,50898
breech presentation,50898
pulmonary veno-occlusive disease,50898
geoarchaeology,50898
terminal sedation,50898
Civet,50898
long-term memory,50898
Brillouin,50898
definitive host,50898
Petri net,50898
knock-in,50898
energy flux,50898
innominate,50898
PSL,50898
opiate,50898
BCL2,50898
Sv,50898
parthenogenetic,50898
Gulf Stream,50898
hazard analysis,50898
toxicodynamics,50898
waar,50898
Bohm,50898
chord,50898
PDE9A,50898
endemism,50898
GOSR2,50898
vowel length,50898
puborectalis,50898
operculum,50898
Baldwin,50898
selective pressure,50898
episiotomy,50898
PXK,50898
asexual,50898
Human papillomavirus infection,50898
scratch test,50898
Essure,50898
plasma cell,50898
soil compaction,50898
chronic viral hepatitis,50898
phyllosilicates,50898
atomic units,50898
NRXN1,50898
Twelve months,50898
dispositional optimism,50898
Mutagenesis,50898
infraspinatus,50898
Interleukin-6,50898
GATA2,50898
Disease-free survival,50898
Utah,50898
Insulin secretion,50898
Gross Motor Function Classification System,50898
connexin 43,50898
PIAS,50898
chimeric antigen receptor,50898
Rosetta,50898
cochlea,50898
sigma factor,50898
container terminal,50898
diffusion-weighted MRI,50898
AXL receptor tyrosine kinase,50898
RTS,50898
MAGI3,50898
electrophilic substitution,50898
traditional knowledge,50898
homology modeling,50898
pst,50898
UGT1A9,50898
TEX86,50898
Live Journal,50898
Rhabdomyosarcoma,50898
antenatal screening,50898
focal epilepsy,50898
catastrophic injury,50898
haemolysis,50898
axilla,50898
Sca-1,50898
Lanzhou,50898
procyclic,50898
loop diuretics,50898
Mean corpuscular volume,50898
lactation,50898
Free Energy,50898
SciSearch,50898
IFNAR1,50898
7 girls,50898
loricrin,50898
type 1 diabetes mellitus,50898
atosiban,50898
equine arteritis virus,50898
glyceraldehyde 3-phosphate dehydrogenase,50898
approximation algorithm,50898
chromosome X,50898
nucleoprotein,50898
B-12,50898
bacteriuria,50898
bursa,50898
sweat,50898
celles,50898
beta agonists,50898
syntaxin-1,50898
Airtraq,50898
chemosensory,50898
travertines,50898
ESV,50898
anoxic,50898
LEO,50898
open data,50898
Strongyloides stercoralis,50898
blood brain barrier,50898
Falco tinnunculus,50898
Athens,50898
cytochrome-c,50898
decomposers,50898
ankyrin G,50898
hydrolyzed,50898
Eif2b4,50898
ubiquinol,50898
Sterol,50898
perchlorate,50898
climatology,50898
Cardioversion,50898
Pharmacophore,50898
sesame oil,50898
NRAS,50898
cholecystectomy,50898
Foley catheter,50898
endplate potentials,50898
composite material,50898
PGP,50898
immune checkpoint,50898
MDA-MB-231,50898
cariogenic,50898
iron oxyhydroxide,50898
organyl,50898
foliation,50898
spontaneous vaginal delivery,50898
FUBP1,50898
emission factors,50898
taxanes,50898
solipsism,50898
Quercetin,50898
honey bee,50898
mediastinal lymph node,50898
TRAIL,50898
Emperipolesis,50898
hydrosalpinx,50898
fenestration,50898
forced migration,50898
red wine,50898
chemical space,50898
donepezil,50898
biocytin,50898
tumor necrosis factor receptor,50898
KLK5,50898
Sarcocornia,50898
Fibroid,50898
Mannan,50898
biological cell,50898
short circuit,50898
rotavirus,50898
serum albumin,50898
Griess reagent,50898
vegetarian,50898
VU Medical Centre,50898
microbial intelligence,50898
anion exchange chromatography,50898
single gene disorder,50898
dose-response curve,50898
hearing protection,50898
evolutionary pressure,50898
CEBPA,50898
Geochemical modeling,50898
HSPB1,50898
oil reserves,50898
Hemodynamics,50898
Calyx,50898
great pond,50898
Raman laser,50898
BSI,50898
meta-GGA,50898
retention policies,50898
sorbent,50898
morphospecies,50898
TLS,50898
Erysipelas,50898
nalmefene,50898
transrectal ultrasound,50898
deconditioning,50898
Perturbation theory,50898
duodenoscopy,50898
epicanthal folds,50898
Maastrichtian,50898
filigree,50898
LD50,50898
hypophosphatemia,50898
KDE,50898
paleosol,50898
SBT,50898
Braak stages,50898
striated muscle,50898
marine transgression,50898
plasma protein,50898
greenness,50898
nepenthesin,50898
Fanconi anaemia,50898
intubation,50898
dipslide,50898
awakenings,50898
doxycycline,50898
IZA,50898
subscapularis,50898
lumpectomy,50898
The survivors,50898
pulmonary capillary hemangiomatosis,50898
tunable resistive pulse sensing,50898
biogenic,50898
UA,50898
proteolytic degradation,50898
LDF,50898
Flemish people,50898
pandemic,50898
Siena,50898
emtansine,50898
osseous spiral lamina,50898
hyperedge,50898
superior mesenteric artery,50898
double negatives,50898
Doxorubicin,50898
B. thailandensis,50898
relative error,50898
Garonne,50898
Reconstructive surgery,50898
photocatalytic,50898
P2X,50898
wool,50898
rhyodacitic,50898
Montreal Cognitive Assessment,50898
hallux rigidus,50898
GVHD,50898
semantic search,50898
phloem,50898
quality management system,50898
dyspareunia,50898
W58,50898
health status indicators,50898
general linear model,50898
diffusion layer,50898
BCOR,50898
computer adaptive testing,50898
solar twin,50898
"Minneapolis, MN",50898
vemurafenib,50898
MIB,50898
arabitol,50898
allophycocyanin,50898
LL-37,50898
phenprocoumon,50898
Slc26a4,50898
TSC1,50898
generalized additive model,50898
asexual reproduction,50898
atropine,50898
inguinal canal,50898
fluorous,50898
pneumonectomy,50898
ammonium sulfate,50898
The clock,50898
larva,50898
Ocean Drilling Program,50898
frontal pole,50898
Davos,50898
Osaka,50898
HLA-DQB1,50898
YOD,50898
Immunocytochemistry,50898
TNM classification,50898
JWKB,50898
Deviant,50898
University Medical Center Groningen,50898
dimethylsulfoxide,50898
lifting condensation level,50898
vinculin,50898
biplane,50898
AIMD,50898
CP group,50898
dart apparatus,50898
GRIN,50898
Dordrecht,50898
humanitarian aid,50898
cachexia,50898
Newborn screening,50898
disaster management,50898
default mode network,50898
progradation,50898
BACH2,50898
POU2F3,50898
The tested,50898
composite volcano,50898
PRODES,50898
Agulhas,50898
EDM,50898
drill-core,50898
TGF-beta pathway,50898
Ficoll,50898
cervical manipulation,50898
KI67,50898
cirrhotics,50898
Metropolis-Hastings,50898
Chlorophyll,50898
hand tracking,50898
Qinghai-Tibet Plateau,50898
monounsaturated fat,50898
breast ultrasound,50898
SFO,50898
cannabinoid receptor,50898
la red,50898
Stipa,50898
volumetric model,50898
TH-302,50898
Synthetic lethality,50898
NPH insulin,50898
UGT2B7,50898
vitreous body,50898
S phase,50898
hydrous,50898
Ophiolite,50898
data warehouse,50898
thiopurine,50898
El presente,50898
Freiberg,50898
lactoferricin,50898
sleep deprivation,50898
specific surface area,50898
Harris Hip Score,50898
ACTION,50898
goodness-of-fit test,50898
Graz,50898
ICML,50898
borehole,50898
reforestation,50898
LIVE/DEAD,50898
biceps femoris,50898
GRIK4,50898
Paranoia,50898
neurotrauma,50898
ubiquinone,50898
transferase,50898
Occupational therapy,50898
distributed system,50898
endocannabinoid,50898
Inhibitor,50898
NOD2,50898
TRPS1,50898
wheel-running,50898
Judo,50898
co-stimulation,50898
sRNA,50898
disomy,50898
mutual exclusion,50898
Scottish,50898
blood serum,50898
gynecology,50898
TRAF4,50898
azacitidine,50898
LEA,50898
Beamforming,50898
Statistical Parametric Mapping,50898
furnace,50898
7-hydroxycoumarin,50898
antacids,50898
minor groove,50898
transgressive,50898
Scrum,50898
thermal camera,50898
C. glomerata,50898
MKRN3,50898
sperm count,50898
eating disorder,50898
PTI,50898
Glomerular filtration rate,50898
SMAD3,50898
psychiatric medication,50898
Choroid,50898
pleckstrin homology,50898
beta-1b,50898
direct radiography,50898
Molecular Dynamics (MD),50898
Weibull,50898
chain complex,50898
genome-wide complex trait analysis,50898
Data processing,50898
Type 2 diabetic,50898
golden eagle (Aquila chrysaetos),50898
short message service (SMS),50898
Avaaz,50898
PSMB5,50898
radium,50898
Pubmed,50898
gross domestic product,50898
Geographic Information Systems (GIS),50898
Dolosigranulum,50898
Roux-en-Y gastric bypass,50898
Turkish people,50898
peer educator,50898
leiomyoma,50898
flecainide,50898
androstenedione,50898
meniscal tear,50898
valencene,50898
3-phosphoglycerate,50898
density gradient centrifugation,50898
CCL20,50898
feature vector,50898
Delta 5,50898
TOP2A,50898
VEGFR-2,50898
UCAs,50898
matched-pair analysis,50898
Pharmacoeconomics,50898
photocathode,50898
TCEP,50898
Grubbs,50898
Cervical cancer screening,50898
negative differential resistance,50898
echo time,50898
jig,50898
polysaccharides,50898
Umbilical cord blood,50898
B. nigra,50898
trophic level,50898
biocontamination,50898
pathological anatomy,50898
H-L,50898
acetal,50898
prediabetes,50898
protozoan infections,50898
AAD,50898
DALI,50898
mixed order,50898
wine,50898
frequency-domain,50898
levitation,50898
SMS,50898
articulo,50898
macular,50898
Trail Making Test,50898
SPs,50898
polyhedron,50898
Brussels,50898
Interictal,50898
HELLP,50898
dinocyst,50898
basal cell carcinoma,50898
monotonous,50898
vitamin D3,50898
pulmonary hypoplasia,50898
circumpolar,50898
cathodal,50898
Lugano,50898
ELBW,50898
Experimental design,50898
antichymotrypsin,50898
Gene ontology,50898
chirp mass,50898
CREBBP,50898
intensified CCD camera,50898
bioengineering,50898
peroneal nerve,50898
assertive community treatment,50898
Selection bias,50898
swash,50898
applicability domain,50898
micrite,50898
antennae,50898
postcentral,50898
astronaut,50898
X2C,50898
ABCG1,50898
ridge regression,50898
Folliculitis,50898
ependymal,50898
preventive healthcare,50898
NIRF,50898
point estimate,50898
risperidone,50898
defined daily dose,50898
vaginal infection,50898
satyr,50898
Global health,50898
MUTYH,50898
PIAS4,50898
osteonecrosis,50898
NCAM1,50898
KCNK9,50898
GTV,50898
zona glomerulosa,50898
FFA,50898
dispersal capacity,50898
Chenab,50898
Schlager,50898
2D-NMR,50898
27-hydroxycholesterol,50898
Armenian,50898
extra dimensions,50898
seaport,50898
somatoform disorder,50898
resistor,50898
Gibbs sampling,50898
National Immunization Program,50898
Functional MRI,50898
Paratethys,50898
vitamin C,50898
Petrographic,50898
B-lymphocytes,50898
polar vortex,50898
tiga,50898
triceps brachii,50898
apsidal,50898
dolomitic limestone,50898
BSN,50898
Empetrum hermaphroditum,50898
inorganic phosphate,50898
soil biota,50898
modiolus,50898
palivizumab,50898
blood oxygen level,50898
UFO,50898
OVA,50898
biotechnology,50898
functional constipation,50898
hyperparasitoid,50898
Bonn,50898
selective incorporation,50898
splice site mutation,50898
deeper waters,50898
Internal rotation,50898
polygenic score,50898
qRT-PCR,50898
Hippocampus,50898
microfossil,50898
accelerator mass spectrometry,50898
Voronoi deformation density,50898
Arthrocnemum macrostachyum,50898
BMP-2,50898
AIx,50898
letrozole,50898
psychiatric disorder,50898
transketolase,50898
poor immune system,50898
OGIS,50898
hormonal contraception,50898
biomaterial,50898
vaccine types,50898
ortholog,50898
sinus tachycardia,50898
GCTA,50898
CGI,50898
"1,2,3-triazole",50898
TiN coating,50898
transgender health care,50898
Dipropyl,50898
rare earth element,50898
esker,50898
total body irradiation,50898
Late Pleistocene,50898
WMV,50898
Whitney,50898
Barberton Greenstone Belt,50898
acidemia,50898
SMPD1,50898
disulfide bridge,50898
gamma band,50898
pyroclastic density current,50898
UGT,50898
vasculogenic mimicry,50898
epileptologist,50898
kinetic fractionation,50898
KE64,50898
rain shadow,50898
O-8,50898
QUS,50898
Current protocols,50898
dorsal root ganglia,50898
pulse sequence,50898
HEC,50898
HLA-DOA,50898
indicator dyes,50898
nappe,50898
spatial statistics,50898
mora,50898
Special interest group,50898
RFU,50898
bulimia nervosa,50898
ZIP10,50898
tocolytic,50898
Antarctic Bottom Water,50898
Normalized Difference Vegetation Index (NDVI),50898
hypoxic cancer cells,50898
KITLG,50898
CD8A,50898
protein kinase G,50898
suicidal ideation,50898
bleeding gums,50898
The package,50898
variational problem,50898
testa,50898
brachial plexus,50898
pitcher,50898
Laptev Sea,50898
rheumatism,50898
detrended fluctuation analysis,50898
primary motor cortex,50898
Cryptogam,50898
RUNX2,50898
Aksehir,50898
HSPB8,50898
data protection,50898
hypopigmentation,50898
patellar tendon,50898
bioequivalence,50898
Tumor Necrosis Factor,50898
guanine,50898
sulcal,50898
Geographical Information Systems,50898
mantle wedge,50898
solubilisation,50898
Artemisia,50898
fibrinolytic agents,50898
musculoskeletal injury,50898
preterm labour,50898
urostomy,50898
BA10,50898
APE1,50898
ZFC,50898
ablation zone,50898
Bordeaux,50898
PET/MRI,50898
chocolate milk,50898
Lactobacillus rhamnosus,50898
hesperidin,50898
uranyl acetate,50898
fibril,50898
hypomanic,50898
linear subspace,50898
white-tailed sea eagle,50898
WASP,50898
global bifurcation,50898
small cell lung cancer,50898
Tethys Ocean,50898
microdiscectomy,50898
ADAMTS13,50898
Qualitative data,50898
nitrogen-fixing plants,50898
Plexus,50898
MMAE,50898
5 L,50898
Best response,50898
trifluoromethyl,50898
BKS,50898
delayed implantation,50898
cotransporter,50898
glenohumeral joint,50898
carbonic anhydrase 9,50898
gastroenterology,50898
scolex,50898
paleosols,50898
MTDH,50898
microplastics,50898
protected forests,50898
cet,50898
Odonata,50898
Giardia,50898
Erythropoietin,50898
Normal fault,50898
glyceraldehyde 3-phosphate,50898
Osteoblast,50898
cefazolin,50898
penetrance,50898
glass-fibre,50898
Acoustic wave,50898
Pokhara,50898
plasma cells,50898
immunomodulators,50898
portography,50898
submaxillary gland,50898
Antarctic Intermediate Water,50898
insect cuticle,50898
extracellular signal-regulated kinase,50898
dari,50898
oil depot,50898
sleeve gastrectomy,50898
Pannonian,50898
SULT,50898
CLDN3,50898
Haliaeetus albicilla,50898
cultural capital,50898
GNAQ,50898
Record linkage,50898
hyaluronidase,50898
icehouse,50898
Islamic jurisprudence,50898
heteroclinic connection,50898
freshwater lens,50898
operating microscope,50898
I-124,50898
Dectin-1,50898
anabolism,50898
osseous tissue,50898
KCNT2,50898
CA4,50898
cardioversion,50898
depersonalization,50898
Virus-like particle (VLP),50898
POLE,50898
revictimization,50898
functional Magnetic Resonance Imaging,50898
irritable bowel syndrome,50898
resurrection,50898
hydrophone,50898
NCBI,50898
hepatic artery,50898
trace element,50898
ceteris paribus,50898
FANCI,50898
ophthalmological,50898
Grade III,50898
inspiral,50898
Pazopanib,50898
watchful waiting,50898
sediment gravity flows,50898
gluten-free,50898
GPRS,50898
occiput,50898
Epithelium,50898
granodioritic,50898
Amazonian forest,50898
DEM,50898
LiH,50898
cystic duct,50898
signed differential mapping,50898
patient-centered care,50898
development assistance,50898
Enhanced Vegetation Index,50898
subchondral bone,50898
Labrador,50898
el grado,50898
Arterial stiffness,50898
McBain,50898
existential suffering,50898
tritium,50898
medialis,50898
WRF-FIRE,50898
granulosa cells,50898
bedaquiline,50898
imidacloprid,50898
GLP-1 receptor,50898
DLCO,50898
RBD,50898
geopotential height,50898
elongase,50898
primary tooth,50898
Bonferroni correction,50898
hematite,50898
WML,50898
esta,50898
weight bearing,50898
TMEM106B,50898
Q-value,50898
vasculopathies,50898
C3 photosynthesis,50898
IASI,50898
Fc receptors,50898
TBX21,50898
Atypical depression,50898
ARIMA,50898
natural abundance,50898
Maquet,50898
Epilepsy,50898
alae,50898
syt1,50898
radiosensitizing,50898
reaction center,50898
GHD,50898
aging brain,50898
Deccan,50898
inosine,50898
HLA-DPB1,50898
psycho-oncology,50898
HPV vaccine,50898
histologic evaluation,50898
Nippostrongylus brasiliensis,50898
derandomization,50898
epirubicin,50898
TC-1,50898
Neotethys,50898
systems pharmacology,50898
Three centers,50898
metaluminous,50898
Coenagrionidae,50898
sialic acids,50898
bioconcentration factor,50898
participatory design,50898
Pronase,50898
RHIC,50898
coronary flow reserve,50898
Fayum Depression,50898
premotor cortex,50898
MYCN,50898
hexagonal bipyramid,50898
Climatology,50898
dual diagnosis,50898
glycopeptide,50898
CORINE,50898
ubiquitin-proteasome pathway,50898
genealogy,50898
Linear discriminant analysis,50898
Naples,50898
Thrombocyte,50898
K-RAS,50898
fenland,50898
nephrostomy,50898
SBML,50898
Kenya Rift valley,50898
form 16,50898
cold pressor test,50898
DFA,50898
hnRNPA1,50898
catastrophic injuries,50898
CELSR2,50898
SILAC,50898
phosphofructokinase,50898
"L-3,4-dihydroxyphenylalanine",50898
SATB1,50898
Jhelum,50898
TDCIPP,50898
arteriovenous malformation,50898
bacterial culture,50898
generalised anxiety disorder,50898
ostomy,50898
contact allergies,50898
cyclic guanosine monophosphate,50898
antiporters,50898
renal capsule,50898
GAA,50898
opiates,50898
Glomeromycota,50898
cytosine,50898
weight average molecular weight,50898
LIN7A,50898
partial equilibrium,50898
Tomsk,50898
EEG-fMRI,50898
pulmonary valve,50898
NIMA,50898
Tenascin-C,50898
STI testing,50898
global analysis,50898
PL45,50898
CA15-3,50898
group lasso,50898
microbalance,50898
TGFBR2,50898
Lansky,50898
stepwise regression,50898
ERF,50898
solar elevation angle,50898
error threshold,50898
electron spin resonance dating,50898
cortisone,50898
isochron,50898
A 45,50898
corticomuscular coherence,50898
Borg Scale,50898
reference genome,50898
PPtP,50898
CYP11A1,50898
lipid A,50898
retrognathia,50898
process variables,50898
cerebral ischaemia,50898
exciton,50898
PRKAG2,50898
turbidites,50898
lea,50898
alveolar bone,50898
lamination,50898
NLCS,50898
fugacity,50898
amyloid beta,50898
IL-22,50898
DPCPX,50898
Renal function,50898
fertilizer,50898
blood clots,50898
Electromyography,50898
chemical similarity,50898
FSHB,50898
Child Depression,50898
sciatic nerve injury,50898
love dart,50898
circumcised,50898
ocular dominance,50898
fat pad,50898
HDAC inhibitor,50898
peptide coupling reagent,50898
Fe2,50898
HOMO/LUMO,50898
mithramycin,50898
memantine,50898
FEV1/FVC,50898
free market,50898
Chlamydia infection,50898
observer bias,50898
dietary fibre,50898
chitin,50898
fluorescein angiography,50898
SSD,50898
H3F3A,50898
Cytochromes P450,50898
convective activity,50898
basketball,50898
extended X-ray absorption fine structure,50898
Rab GTPase,50898
rare earth elements,50898
SPV,50898
FOLFOX,50898
Danian,50898
hemorrhagic stroke,50898
oceanic plate,50898
Primary tumor,50898
median nerve,50898
GMC,50898
currency sign,50898
Intravenous infusion,50898
WILEY-VCH,50898
fibrinoid necrosis,50898
protein precipitation,50898
photocoagulation,50898
PFR,50898
Middle Eocene,50898
Reaction coordinate,50898
live/dead,50898
meteorite,50898
anuria,50898
TLR5,50898
St Jude,50898
Clebopride,50898
cheminformatics,50898
FADS1,50898
thermolabile,50898
FBXW7,50898
community health worker,50898
MK,50898
reference range,50898
water cycle,50898
pelvic girdle pain,50898
flavor symmetry,50898
megafauna,50898
phosphodiesterase type 5,50898
35mm,50898
CXCL13,50898
bacteriostatic,50898
abdominis,50898
nootkatone,50898
Cataract surgery,50898
CD71,50898
soil salinity,50898
Exertion,50898
multiple system atrophy,50898
90% confidence limit,50898
measurement uncertainty,50898
KZN,50898
anaplastic,50898
neuroborreliosis,50898
micrometer,50898
folliculogenesis,50898
arteriography,50898
thiacloprid,50898
Diuresis,50898
FGM,50898
passive transport,50898
Atmosphere,50898
bog,50898
SOLEIL,50898
Northern America,50898
phosphodiester,50898
Brisbane,50898
ERK1,50898
Ozone Monitoring Instrument,50898
hydrochloride,50898
Zhangmu,50898
acyclic,50898
Rastatt,50898
myometrium,50898
teriparatide,50898
N. gonorrhoeae,50898
Leaf Area Index,50898
hyperbaric,50898
excitatory amino acid transporter 1,50898
global brain,50898
HUPO,50898
controlled experiment,50898
interleukin-17,50898
Keio University,50898
PTT,50898
Torin,50898
molecular epidemiology,50898
rotation number,50898
general equilibrium,50898
Braak staging,50898
COCOMO,50898
epoxy resin,50898
EGER,50898
Depressive episode,50898
contracture,50898
uracil,50898
derealization,50898
iliotibial band,50898
outer plexiform layer,50898
sortase,50898
preimplantation genetic diagnosis,50898
soil formation,50898
deer,50898
bleed air,50898
brachial,50898
psychomotor agitation,50898
IRSS,50898
upper 2,50898
adrenocortical,50898
cosmogenic,50898
CD98,50898
UVs,50898
C-type lectin receptor,50898
spindle checkpoint,50898
Travertine,50898
Hamilton,50898
romidepsin,50898
Gibbs sampler,50898
postpartum haemorrhage,50898
serum amyloid P,50898
chondroitin sulfate,50898
peraluminous,50898
quadriceps,50898
EAA,50898
prostate gland,50898
GitHub,50898
CXCL2,50898
genetic engineering,50898
Esomeprazole,50898
SLC17A5,50898
Olympic sports,50898
vorticity,50898
astrocytoma,50898
80 minutes,50898
IFNG,50898
Wilcoxon signed-rank test,50898
amyloidosis,50898
targeted therapy,50898
core data,50898
Ileostomy,50898
Euhadra peliomphala,50898
vacuum extraction,50898
portal vein thrombosis,50898
peregrine falcon,50898
neurocysticercosis,50898
Impacto,50898
hemipelagic,50898
ammonium transporter,50898
Blood vessel,50898
QST,50898
Blood-brain barrier,50898
urban sprawl,50898
Phosphorescence,50898
VCL,50898
American Pharmacists Association,50898
personnel selection,50898
LPC,50898
Handrail,50898
core promoters,50898
oncogenetic,50898
Glomerular filtration rate (GFR),50898
left frontal cortex,50898
Soleus,50898
chondrosarcoma,50898
apocrine glands,50898
plasmacytoma,50898
DLG2,50898
MammaPrint,50898
L-DOPA,50898
OT levels,50898
oval window,50898
Aegean,50898
quercetin,50898
proton coupled electron transfer,50898
parathyroidectomy,50898
la equidad,50898
DF-1,50898
hyperosmia,50898
Mu,50898
norandrostenedione,50898
cilia,50898
GCKR,50898
subcommissural organ,50898
Health literacy,50898
International Ocean Discovery Program,50898
electric dipole moment,50898
Ampelus,50898
Early Cretaceous,50898
tau deposition,50898
Martini,50898
freeze-fracture,50898
diversity indices,50898
Doc2A,50898
Indus,50898
107%,50898
troglitazone,50898
PAEC,50898
subcutaneous fat,50898
Psycho-Oncology,50898
Next Generation,50898
charnockite,50898
R116,50898
carfilzomib,50898
GNA11,50898
premature menopause,50898
CRB1,50898
armadillo,50898
TBP.,50898
maternal mortality ratio,50898
posterior reversible encephalopathy syndrome,50898
Friulian,50898
SLC26A3,50898
MPLA,50898
differential pulse voltammetry,50898
Martingale,50898
ASAH1,50898
Mita,50898
ADAS,50898
DZnep,50898
effective renal plasma flow,50898
whey protein,50898
hilus,50898
H. ducreyi,50898
Injury prevention,50898
fractionations,50898
charged coupled device,50898
HAM-D,50898
semen cryopreservation,50898
Aalborg,50898
pirimicarb,50898
SLC26A6,50898
cyclin E,50898
colorectal adenocarcinoma,50898
MCM5,50898
Concurrent validity,50898
delta method,50898
phytoremediation,50898
Wnt signals,50898
MicroCT,50898
Bitlis,50898
microdose,50898
multireference,50898
degeneration theory,50898
Nephrops,50898
120 days,50898
RBFOX1,50898
phenolic compounds,50898
CNK,50898
super-resolution light microscopy,50898
short-chain fatty acid,50898
SOX4,50898
avid,50898
fibrofolliculoma,50898
rosette,50898
AES,50898
hyperacusis,50898
hepatic tumors,50898
carbonization,50898
T-test,50898
ecological fitting,50898
hypercapnia,50898
PAF acetylhydrolase,50898
beta-lactam,50898
MSH2,50898
ABCG2,50898
CYP27B1,50898
TWIST1,50898
nasogastric,50898
beef,50898
OMI,50898
SITA,50898
endothelial nitric oxide synthase,50898
assessment centre,50898
epicatechin,50898
PLP1,50898
Sex ratio,50898
clinical microbiology,50898
GdCl3,50898
FOLFIRI,50898
irinotecan,50898
geriatric dentistry,50898
magnoliids,50898
climate damage,50898
immobilized enzyme,50898
immunohistochemical testing,50898
urothelium,50898
phylloquinone,50898
final devoicing,50898
Martian,50898
dabrafenib,50898
post-partum haemorrhage,50898
solar cell,50898
SIFT,50898
emergent property,50898
CTLA-4,50898
plasticity effects,50898
strabismus surgery,50898
PCNA,50898
helicids,50898
companion diagnostic,50898
Zebrafish,50898
antimicrobial peptides,50898
primary visual cortex,50898
landfill,50898
itu,50898
KTN1,50898
Verona,50898
TROG,50898
perirhinal,50898
E-64,50898
upconverting,50898
OR 19,50898
vigabatrin,50898
Agoraphobia,50898
spermathecae,50898
BACE1,50898
Cost-effectiveness analysis,50898
So'a,50898
cytoprotection,50898
cavernoma,50898
sari,50898
ACTA2,50898
inconceivable,50898
palpation,50898
stringent response,50898
Osteoclast,50898
ProCOR,50898
neurofibrillary,50898
SPG11,50898
opera,50898
biometric,50898
puerperium,50898
schwannomas,50898
phototransduction,50898
Kruppel-like,50898
electrical potential,50898
mTOR inhibitor,50898
green energy,50898
DGKB,50898
Shigatse,50898
Lausanne,50898
alendronate,50898
SH-SY5Y,50898
NUCB2,50898
biotite,50898
PBX,50898
mesenteric lymph nodes,50898
genetically divergent,50898
maltotriose,50898
MCL,50898
Setipiprant,50898
Osiris,50898
Anti-TNF,50898
rewilding,50898
acrodermatitis chronica atrophicans,50898
TRAP1,50898
Voronoi,50898
SMAD4,50898
isotopic enrichment,50898
thiosulfate,50898
passive smoking,50898
flame retardant,50898
FADS2,50898
real time PCR,50898
siwa,50898
precipitated silica,50898
estrone,50898
diencephalon,50898
BIN1,50898
headspaces,50898
ALK,50898
ERK2,50898
EXAFS,50898
Swat,50898
Domain Specific Language,50898
hypophosphataemia,50898
Rengen,50898
M. smegmatis,50898
intracranial tumor,50898
teleological,50898
POU1F1,50898
hydrophilicity,50898
Freiburg,50898
Bradybaenidae,50898
CDKL5,50898
limit cycle,50898
tonalite-trondhjemite-granodiorite,50898
nadirs,50898
Cross-sectional regression,50898
Falco peregrinus,50898
snakebite,50898
estrogen sulfotransferase,50898
Age-standardised,50898
poly-A tail,50898
excitatory amino acid transporter 2,50898
BGN,50898
Hispanic,50898
Asymptomatic,50898
sebum,50898
neovaginoplasty,50898
Polymorphism,50898
Pakistan,50898
MYH11,50898
endocytosed,50898
scoria cone,50898
Poladpur,50898
salmonella,50898
halite,50898
I.V.,50898
CD105,50898
Physiotherapy,50898
Fxr2,50898
pulmonary artery banding,50898
metamorphosis,50898
splenectomized,50898
Actinobacteria,50898
BEAS,50898
spirometry,50898
Agilent Technologies,50898
ejaculate,50898
nitroglycerin,50898
NTRK3,50898
restricted maximum likelihood,50898
cardiorespiratory fitness,50898
junto,50898
parenchymal tissue,50898
miR-124,50898
Compton wavelength,50898
Postpartum hemorrhage,50898
molecular orbital (MO) theory,50898
sendiri,50898
intrauterine growth retardation,50898
hypoglycemic,50898
Aplysia,50898
Aldosterone,50898
Cepaea nemoralis,50898
feeding tube,50898
tantra,50898
Minato-ku,50898
Avonex,50898
human hearts,50898
Mst1,50898
polyunsaturated fat,50898
American Psychologist,50898
CDK2,50898
Ra,50898
Bergmann glia,50898
schizotypy,50898
subgranular zone,50898
pediatrics,50898
language areas,50898
pilus,50898
geotherm,50898
UHT,50898
sediment-water interface,50898
tricuspid regurgitation,50898
IRF4,50898
dose area product,50898
granular layer,50898
Shyok,50898
restriction modification system,50898
Late Miocene,50898
MT1,50898
cingulum bundle,50898
SULT1E1,50898
Mycobacterium intracellulare,50898
molecular docking,50898
visual cycle,50898
IND,50898
electron probe microanalysis,50898
Lhasa,50898
lead optimization,50898
ose,50898
hypusine,50898
dissolved silica,50898
747,50898
Hoogerheide,50898
heme oxygenase-1,50898
acyl,50898
configuration interaction,50898
peripheral T-cell lymphoma,50898
neurofibrillary tangles,50898
H3.3,50898
kinome,50898
PCCB,50898
mBC,50898
infraspinatus muscle,50898
neurohormones,50898
psychodynamic therapy,50898
ganglion cell,50898
Ames assay,50898
cryo-electron microscopy,50898
mandible,50898
Walvis Ridge,50898
webMathematica,50898
Interbedded,50898
transpression,50898
XPS,50898
CRB,50898
Schlieren imaging,50898
tawny owl,50898
MPI,50898
Taylor Dome,50898
colloid osmotic pressure,50898
DICE,50898
defensin,50898
Emi1,50898
angiotensin II receptor type 1,50898
esophageal achalasia,50898
apico-coronal,50898
cavitation,50898
peripheral edema,50898
open source software,50898
Langhian,50898
Common Agricultural Policy,50898
exercise intensity,50898
Mulliken,50898
signet ring cell,50898
unexplained weight loss,50898
Death rate,50898
social desirability bias,50898
Alexa,50898
Canisius,50898
Sprague Dawley rats,50898
Vitoria,50898
potassium feldspar,50898
CTLA4,50898
Immunostaining,50898
amiloride,50898
parahippocampal cortex,50898
"ZM-241,385",50898
MNZ,50898
population stratification,50898
AKR1D1,50898
episomal,50898
niche differentiation,50898
esomeprazole,50898
Endeavour Crater,50898
galena,50898
SMF,50898
histone methyltransferase,50898
aortic annulus,50898
sleep apnoea,50898
ADR,50898
Bq,50898
multiple gestation,50898
lymphotoxin,50898
andalusite,50898
recompression therapy,50898
Leachate,50898
pulmonary circulation,50898
dorsolateral prefrontal,50898
siliciclastic,50898
RELA,50898
oligodendroglioma,50898
EPL,50898
ecological succession,50898
heavy object,50898
variable interval,50898
jump-diffusion,50898
GPT,50898
rebound effects,50898
cycling infrastructure,50898
electronic system,50898
interpersonal therapy,50898
triceps surae,50898
hyperbole,50898
Newfoundland,50898
recurrence quantification analysis,50898
Mauss,50898
inflammatory bowel diseases,50898
neuronopathy,50898
brake,50898
oxytocin (OT),50898
unearth,50898
restorative justice,50898
Inselberg,50898
HBV model,50898
caste system,50898
Grady,50898
electron transport,50898
dose-volume histogram,50898
diatoxanthin,50898
economic liberalization,50898
meaning-making,50898
NOx,50898
Garos,50898
Venezuela,50898
endometritis,50898
pre-malignant,50898
emergency medical service,50898
Henri Lefebvre,50898
endogeneity,50898
public housing,50898
biogeochemical cycling,50898
PanNETs,50898
reckless endangerment,50898
Alfred,50898
Crew resource management,50898
light field,50898
dihydrotestosterone,50898
Gulen,50898
hypertrophic scar,50898
Victoria,50898
sexual exploitation,50898
pentagon,50898
discrete time,50898
chemotherapy regimens,50898
self-defense,50898
illegal aliens,50898
Ecosystem Services,50898
helminthic disease,50898
multiple endocrine neoplasia type 1,50898
goalkeeper,50898
contagious disease,50898
DNA glycosylase,50898
inertial sensor,50898
cytochrome P450 monooxygenase,50898
rosacea,50898
immigration detention,50898
soteriology,50898
fire season,50898
NHL,50898
Olympic Games,50898
synaptogenesis,50898
poststructuralist,50898
model checking,50898
spatial coherence,50898
Glutathione S-transferase,50898
Orthopedics,50898
Tabasco,50898
MANCOVA,50898
response error,50898
extended spectrum beta-lactamase,50898
dynamic capabilities,50898
institutional review board,50898
reinvested,50898
micronutrient,50898
Duchenne Muscular Dystrophy (DMD),50898
cardiac electrophysiology,50898
parathyroid gland,50898
pulmonate,50898
ZnS,50898
social evolution,50898
hydrogen economy,50898
holometabolous,50898
protein aggregation,50898
allometric,50898
prokaryotes,50898
Cochrane review,50898
Transference,50898
millennials,50898
resonance structure,50898
dairy product,50898
insecticidal,50898
critical care unit,50898
Team Dynamics,50898
Eigenvector centrality,50898
Greater Boston,50898
cross-metathesis,50898
Freedom force,50898
Richard Kearney,50898
macrocyclic compounds,50898
ecosystem management,50898
weak base,50898
attention-deficit hyperactivity disorder,50898
alternative investments,50898
Pyrenees,50898
untouched,50898
inventory control,50898
central obesity,50898
periglacial,50898
nanobody,50898
Uppsala,50898
urban renewal,50898
face perception,50898
critical discourse analysis,50898
skin grafting,50898
queueing theory,50898
2008 financial crisis,50898
Hypoperfusion,50898
regional train,50898
Parasitoid,50898
suicide bomber,50898
income tax,50898
Mark Rowlands,22947
include vulnerability,50898
cognitive-behavioural therapy,50898
renal disease,50898
crossmodal,50898
production function,50898
gyroscopic sensor,50898
load balancing,50898
inflammatory arthritis,50898
interferon-beta,50898
apothecary,50898
pyrrolidines,50898
multipotent,50898
logistic growth,50898
drusen,50898
illocutionary,50898
spherulite,50898
marginal benefit,50898
contrastive analysis,50898
rutoside,50898
succinic semialdehyde dehydrogenase,50898
GAAP,50898
Quasi,50898
attitude objects,50898
gastric bypass surgery,50898
Dudley,50898
Randomized trial,50898
sexual ritual,50898
Performance Report,50898
business-cycle,50898
Mackenzie,50898
geodesign,50898
cardiac disorder,50898
subduction zone,50898
extrinsic motivation,50898
coevolved,50898
real men,50898
global development,50898
T100,50898
clinical pharmacology,50898
green growth,50898
Dictator Game,50898
postgraduate education,50898
praxis,50898
tandem cell,50898
continuing medical education,50898
FP7,50898
backscatter,50898
TNF inhibitor,50898
thyrotoxicosis,50898
futures studies,50898
prosodic,50898
kaon,50898
transverse abdominal,50898
non-material benefits,50898
Infrared Atmospheric Sounding Interferometer,50898
urban flooding,50898
general mental ability,50898
distance matrix,50898
situational awareness,50898
brain derived neurotrophic factor,50898
Intelligent Systems,50898
SSB,50898
endeavour,50898
Biosphere 2,50898
digital connectivity,50898
DDX11,50898
coping strategy,50898
indenyl,50898
UMC,50898
acetylcholinesterase inhibitor,50898
prostaglandin D2,50898
muscle wasting,50898
oceanic lithosphere,50898
53BP1,50898
noise pollution,50898
turn-taking,50898
Aptian,50898
high force,50898
palaeoclimatological,50898
TPE,50898
bone morphogenetic protein receptor,50898
mutualistic,50898
shopper marketing,50898
group theory,50898
low-level laser therapy,50898
fire records,50898
Self-control,50898
maze,50898
epidemiologists,50898
Trichuris suis,50898
Bible,50898
replicator dynamics,50898
IBX,50898
optimization problem,50898
IBM,50898
scenario planning,50898
Drenthe,50898
dipeptidyl peptidase-4 inhibitor,50898
Gottingen,50898
computer-aided design,50898
double bind,50898
transmedia storytelling,50898
nested data,50898
Targeted therapy,50898
haemosiderin,50898
biomagnification,50898
major evolutionary transitions,50898
Fukushima,50898
Judge Judy,50898
endodontically treated,50898
heterojunction,50898
smart dust,50898
bridging model,50898
yttrium,50898
Loligo pealei,50898
fluid queue,50898
aggregate demand,50898
Family resemblance,50898
formulary,50898
Siwa,50898
G protein-coupled receptors,50898
NMDA receptor,50898
aminoacyl-tRNA synthetases,50898
homology theory,50898
ante partum,50898
hypoxic pulmonary vasoconstriction,50898
active network,50898
lithophile,50898
Labour Force Survey,50898
primary biliary cirrhosis,50898
pseudoholomorphic,50898
clinical guideline,50898
Flevoland,50898
sequential manual,50898
hubbing,50898
neurotrophic factors,50898
Stratovolcano,50898
Hugues Doneau,50898
antimony,50898
language testing,50898
Shift work,50898
salpingo-oophorectomy,50898
sarcomeric proteins,50898
MTH,50898
holm oak,50898
gastro-intestinal tract,50898
implementation theory,50898
Walgrave,50898
coherence theory,50898
Rechtsstaat,23097
Secondary care,50898
Lebanese,50898
mediterranean forest,50898
reactance,50898
Dengue fever,50898
Umbria,50898
Salar de Uyuni,50898
neurorehabilitation,50898
New York Stock Exchange,50898
EASIC,50898
nonlinear dynamics,50898
climate change adaptation,50898
interstellar gas,50898
hard-of-hearing,50898
REbif,50898
bioactive compound,50898
environmental health,50898
Geobacter metallireducens,50898
re-animated,50898
lexical decision,50898
numeraire,50898
Boolean,50898
diary studies,50898
conducting polymer,50898
truth table,50898
social skill,50898
comparative education,50898
mnemic,50898
reference frame,50898
thought experiment,50898
raptors,50898
Chemical biology,50898
control flow,50898
self-determination,50898
demand-led growth,50898
Korean American,50898
epicardial adipose tissue,50898
regenerative medicine,50898
BZD,50898
national federation,50898
Cambodian American,50898
respiratory disease,50898
windfalls,50898
Banach space,50898
social decision making,50898
cellular transport,50898
monomethyl auristatin E,50898
market equilibrium,50898
adrenocortical cells,50898
POS,50898
p-cymene,50898
factor inhibitors,50898
Lower Rhine Region,50898
lichen planus,50898
neonatal death,50898
frank discussion,50898
distraction osteogenesis,50898
Cuddy,50898
conduction velocity,50898
Japan Aerospace Exploration Agency (JAXA),50898
Tutsi,50898
orthopedic surgery,50898
"Beira, Mozambique",50898
sinusoid,50898
low-mass x-ray binary,50898
immune cell,50898
personal medicine,50898
Ecosystem Approach,50898
remand,50898
Lesser Himalaya,50898
winery,50898
ostracism,50898
David Atkinson,50898
oestrogens,50898
metaheuristic,50898
church,50898
preference elicitation,50898
Semantic Web,50898
biotic ligand model,50898
HEXACO model,50898
Fingolimod,50898
yield spread,50898
Evolutionary Algorithm,50898
uniformizable,50898
Canadian Occupational Performance Measure,50898
l-glutamate,50898
somatic disorders,50898
cytoplasmic streaming,50898
computer-based training,50898
article processing charge,50898
soil-transmitted helminth,50898
radiogenic,50898
silver nitrate,50898
fruit juice,50898
collapse theories,50898
Herengracht,50898
self-estimated,50898
Anorexia Nervosa,50898
Prace,50898
economic imperialism,50898
stylized fact,50898
International Criminal Court (ICC),50898
Gestalt grouping rules,50898
collective agreement,50898
earthquake,50898
adamantane,50898
resource mobilization,50898
clean energy,50898
electricity generation,50898
breast implants,50898
4-Vesta,50898
excitation-transfer theory,50898
transport corridor,50898
Galois representations,50898
campus board,24546
tuberculous meningitis,50898
collectivization,50898
transmissible disease,50898
Old Testament,50898
Mata Menge,50898
Buddhist,50898
phencyclidine,50898
Dionysiaca,50898
MMH,50898
mate choice,50898
Garrett Mattingly,50898
social dilemma,50898
speed skating,50898
joint replacement,50898
Hartwick,50898
spinach,50898
An intervention,50898
Grand Ethiopian Renaissance Dam,50898
pelvic floor,50898
synthons,50898
non-nucleoside reverse transcriptase inhibitor,50898
historical institutionalism,50898
disc herniation,50898
Gastroenterology,50898
CJEU,50898
fossil fuel depletion,50898
subjectivation,23239
Garratt,50898
latissimus dorsi,50898
rationalism,50898
ATS,50898
negative binomial distribution,50898
oxygen mask,50898
histidine kinase,50898
Hadrumetum,50898
sensory impairment,50898
Total response,50898
social dominance theory,50898
transition matrix,50898
Westin,50898
Interleukin 6 (IL-6),50898
nanotechnology,50898
Countersignaling,50898
Innovative Medicines Initiative,50898
ATA,50898
borderline intellectual functioning,50898
Jerusalem,50898
Kigali,50898
alternative fuel,50898
COX-2 selective,50898
STW,50898
polycythemia,50898
sovereign debt,50898
ance,50898
bioassay-guided fractionation,50898
antibiotic-resistant bacteria,50898
Heinrich Event,50898
STXBP5,50898
Participatory video,50898
agreed framework,50898
organizational commitment,50898
MLS,50898
Attention Deficit Hyperactivity Disorder (ADHD),50898
Liverpool,50898
Icelandic,50898
IETF,50898
hematological malignancies,50898
Vrije Universiteit,50898
phenology,50898
starch,50898
expression atlas,50898
disability insurance,50898
Bowlby,50898
type VII,50898
tube-in-tube,50898
orthogonal functions,50898
EFTA Court,50898
monopsony,50898
Chianti,50898
N60,50898
pseudocompact,50898
neuromyelitis optica,50898
gluconeogenic,50898
propylene glycol,50898
McLafferty rearrangement,50898
type-I superconductor,50898
ecological footprint,50898
flucloxacillin,50898
genome instability,50898
one-child policy,50898
brain asymmetry,50898
membrane attack complex (MAC),50898
root canal system,50898
phase contrast microscope,50898
tax expense,50898
blast cells,50898
endosymbiotic,50898
damselflies,50898
metallofullerene,50898
endovascular aneurysm repair,50898
order statistics,50898
socially conservative,50898
environmentalism,50898
OHIP,50898
lead time,50898
catechins,50898
extraterrestrial,50898
Sustainable Development Goals,50898
Hugo De Vries,50898
natural language processing,50898
Self-determination theory,50898
oxindole,50898
uninformative prior,50898
stereoscopic 3D,50898
collectivism,50898
visual objects,50898
Mixing,50898
Roman Catholic Church,50898
constant-factor approximation algorithm,50898
invertible matrix,50898
software development,50898
Tianjin,50898
coagulation factor Xa,50898
Northwestern,50898
LCI,50898
Tata,50898
collective responsibility,50898
rubber hand illusion,50898
prune,50898
Elastography,50898
reproductive system,50898
antiprotonic helium,50898
Quetzaltenango,50898
Southern Oscillation,50898
universal indicator,50898
homomorphic encryption,50898
web server,50898
current river,50898
TRASI,50898
NUTS,50898
conjugated polymers,50898
stereotactic radiosurgery,50898
Dutch healthcare system,50898
tracheal intubation,50898
migrant domestic workers,50898
Middle Triassic,50898
Yugoslavia,50898
body plan,50898
public school,50898
Brief Pain Inventory,50898
latent growth modeling,50898
cognitive grammar,50898
growth stock,50898
carbon nanotube,50898
knowledge management,50898
trans men,50898
abscission,50898
sulfinyl,50898
dissociative disorders,50898
prostitution,50898
pediatric endocrinology,50898
Adjustment Disorder,50898
central place theory,50898
fluvial terrace,50898
digital subtraction angiography,50898
nitrogen cycle,50898
transverse plane,50898
refuse collection,50898
lentigo maligna,50898
global reporting initiative,50898
nutrient profiling,50898
antimicrobial prophylaxis,50898
Knowledge retrieval,50898
attachment theory,50898
preposition,50898
chronic stress,50898
meal preparation,50898
network science,50898
Prednisone,50898
trend stationary,50898
mass resolution,50898
serous carcinoma,50898
critical pairs,50898
hypoxia inducible factor (HIF),50898
conceptual domain,50898
rolling resistance,50898
Gurney,50898
WHPP,50898
igneous,50898
convex set,50898
arabinoside,50898
voltage-gated potassium channel,50898
downside risk,50898
interpersonal attraction,50898
ciliopathy,50898
Basque Country,50898
HBEGF,50898
Western Carpathians,50898
Seoul,50898
Zeaxanthin,50898
nuclear families,50898
atmospheric pressure photoionization,50898
semiarid,50898
group dynamics,50898
Danio,50898
environmental hazard,50898
European eel,50898
2014 Olympic games,50898
developed country,50898
American Diabetes Association,50898
Malina,50898
Applied Geography,50898
MPTP,50898
electrostatic potential,50898
aortic aneurysm,50898
Sentinel node,50898
mercaptopurine,50898
Guerrero,50898
andin,50898
White people,50898
socioemotional selectivity theory,50898
pain scale,50898
adhocracy,50898
mean-field theories,50898
ABCC5,50898
carbon leakage,50898
multisensory integration,50898
Medecins Sans Frontieres,50898
Bayes' theorem,50898
lineament,50898
optical imaging,50898
fireflies,50898
biocompatible,50898
kernel density estimation,50898
International Theological Commission,50898
end-stage kidney disease,50898
anova,50898
Paul Ehrlich,50898
self-determination theory,50898
glaciation,50898
SWI-Prolog,50898
rare disease,50898
phonons,50898
cardio-vascular system,50898
Tracey,50898
decay chain,50898
high crime,50898
mechanical overload,50898
Dutch Republic,50898
supply chain management,50898
assessment forms,50898
Brassica oleracea,50898
theologian,50898
tennis racquet,50898
multinucleated giant cells,50898
opioid antagonist,50898
proton therapy,50898
Occupational healthcare,50898
arson,50898
uterine fibroids,50898
eukaryotic translation,50898
sinus lift,50898
annulus fibrosus,50898
piezometric,50898
Rey Complex Figure,50898
incisal,50898
organic photovoltaics,50898
event study,50898
sesquiterpene,50898
bisection,50898
Netherlands Environmental Assessment Agency,50898
Awakening,50898
hydrographical,50898
physiological cross-sectional area,50898
SGLT1,50898
NHA,50898
immunocompromise,50898
lysed,50898
free convection,50898
umbilical hernia,50898
Raman spectrometer,50898
biodiversity loss,50898
HL-1,50898
fludrocortisone,50898
delusion,50898
M. hominis,50898
postprocedural,50898
hydrazine,50898
CYP7A1,50898
p-type doping,50898
19F,50898
HbA1C,50898
AXIN2,50898
effusion,50898
score test,50898
Progression-free survival,50898
phase I metabolism,50898
atomic clock,50898
MUE,50898
decimal,50898
dopamine reuptake inhibitor,50898
desmosomes,50898
central serous chorioretinopathy,50898
bioluminescence,50898
menin,50898
Laurentide ice sheet,50898
ABP,50898
TRF,50898
Central Unit,50898
hypermobility,50898
memory B cell,50898
Mahabaleshwar,50898
GSTP,50898
random sampling,50898
vaginal discharge,50898
NDUFA9,50898
testicular cancer,50898
single-electron-transfer,50898
National Kidney Foundation,50898
positif,50898
acrylamide,50898
MANBA,50898
computed tomographic angiography,50898
PTPRs,50898
neuronal systems,50898
alacrima,50898
dynein,50898
Biomphalaria,50898
morphogenetic,50898
Gastrocnemius,50898
Uterine artery,50898
biomonitoring,50898
2G,50898
total lung capacity,50898
targeting peptide,50898
hydrogen storage,50898
interstellar cloud,50898
GABA transporter,50898
direct contact,50898
Gothenburg,50898
antinuclear antibodies,50898
Strix aluco,50898
Wilhelmina,50898
hominin,50898
perilymph,50898
GCC,50898
Neuropsychopharmacology,50898
modified starch,50898
macronutrient,50898
CCL27,50898
analytical ultracentrifugation,50898
DRG,50898
SLC24A4,50898
Chattian,50898
SRID,50898
percutaneous endoscopic gastrostomy,50898
fucose,50898
interclass correlation,50898
bronchopulmonary dysplasia,50898
Methylome,50898
reperfusion therapy,50898
bleomycin,50898
TAS2R43,50898
littoral zone,50898
Citrulline,50898
hominins,50898
phosphorescent,50898
hemicraniectomy,50898
perineal tears,50898
anti-M,50898
Campylopus introflexus,50898
energy landscape,50898
MYLK,50898
NEIS,50898
CAIX,50898
HED meteorite,50898
Anthracycline,50898
NOTCH,50898
Biofuel,50898
bicarbonates,50898
cordierite,50898
redox gradient,50898
prior data,50898
para-aminohippurate,50898
flutter,50898
AMD,50898
maximum residue limit,50898
epigastric,50898
WEEE,50898
Chemical Shift,50898
Sr-88,50898
protein kinase A,50898
phase portrait,50898
Genoa,50898
cognitive empathy,50898
delta N,50898
neuroinflammatory diseases,50898
graphical user interface,50898
Longitudinal studies,50898
rheumatic disease,50898
hypopharynx,50898
Christchurch,50898
SEQUENOM,50898
Imeglimin,50898
bamboo,50898
F1 hybrid,50898
mylonitic,50898
reflectron,50898
In dementia,50898
pioglitazone,50898
tissue-engineering,50898
Gardnerella vaginalis,50898
backarc,50898
Saccharomyces boulardii,50898
exencephaly,50898
atelectasis,50898
Myofilament,50898
primary amenorrhea,50898
polycomb repressive complex 2,50898
steroidogenic pathway,50898
hyperhomocysteinemia,50898
eolian,50898
Devonian,50898
necrotizing enterocolitis,50898
Fibronectin,50898
coprology,50898
nasal congestion,50898
SDHA,50898
sentinel node biopsy,50898
barn owl,50898
ciliogenesis,50898
squamous metaplasia,50898
B16,50898
PLAU,50898
isotopologue,50898
carbendazim,50898
aponeurosis,50898
sarcomeric,50898
nephrin,50898
Raf1,50898
interleukins,50898
Deep Sea Drilling Project,50898
hermaphrodite,50898
Tunisia,50898
Hypnum cupressiforme,50898
deben,50898
external capsule,50898
caloric restriction,50898
Lymph node,50898
muscovite,50898
Ultrasonography,50898
TGF-beta signaling,50898
HEK293T cells,50898
viral integration,50898
Exenatide,50898
lithology,50898
Myocarditis,50898
afferent fibers,50898
parahippocampus,50898
coupled cluster,50898
presubiculum,50898
cubic spline,50898
Cetuximab,50898
sector mass spectrometer,50898
bottomonium,50898
Leptin,50898
absolute advantage,50898
Daratumumab,50898
annulus,50898
lipid-lowering medication,50898
psychotropic medication,50898
Fusobacteria,50898
circadian rhythm,50898
tunable laser,50898
regional science,50898
menaquinone,50898
photocatalysis,50898
metacarpals,50898
heat-shock protein,50898
Vesta,50898
cefoxitin,50898
sustainable forest management,50898
IPSC,50898
Karakoram,50898
Paratethyan,50898
GraphLab,50898
TCRs,50898
post-mortem interval,50898
Kirsehir,50898
Lena River,50898
Anaemia,50898
liver cirrhosis,50898
contraception,50898
cholecalciferol,50898
Bioinformatic,50898
Exuma,50898
actomyosin,50898
Guanfacine,50898
RelB,50898
ependymoma,50898
Site-directed mutagenesis,50898
pulmonary stenosis,50898
mutation testing,50898
impedance cardiography,50898
warhead,50898
CNTFR,50898
nitrofurantoin,50898
tangent,50898
Diastolic,50898
catechin,50898
Connective tissue,50898
pyridostigmine,50898
anorexia nervosa,50898
self-report inventories,50898
preoccupations,50898
DCIR,50898
strath,50898
propanol,50898
Thalamus,50898
North China Plain,50898
Transdermal,50898
McMurray test,50898
Snack food,50898
pyruvate dehydrogenase kinase,50898
mega-,50898
transient elastography,50898
Hurthle cell,50898
autophagic pathway,50898
antivenom,50898
E-3,50898
cyclobutane pyrimidine dimer,50898
Oral mucosa,50898
Transcriptome,50898
macula,50898
UBE2D3,50898
absolute temperature,50898
experimental control,50898
plantarflexion,50898
SOD2,50898
cobimetinib,50898
Cameroon,50898
shooting range,50898
UQCRC1,50898
pneumothorax,50898
classical mechanics,50898
photolyase,50898
mudstone,50898
hGST,50898
SELP,50898
Deccan Traps,50898
HiRISE,50898
macroangiopathy,50898
RANGAP1,50898
coordination bond,50898
partial agonist,50898
Acta Materialia,50898
Standardized Uptake Value,50898
V600E,50898
direct binding,50898
LOVD,50898
IFP,50898
NODAL,50898
Flux Balance Analysis,50898
nasal secretion,50898
Kabalebo,50898
fusiform gyrus,50898
BMP2,50898
ASCT,50898
Afyon,50898
free-software,50898
DNA adducts,50898
aerosol optical depth,50898
torque screwdriver,50898
interaction design,50898
dentatum,50898
protein flexibility,50898
mbar,50898
peridotite,50898
HF(aq),50898
nucleophilic aromatic substitution,50898
orchestration,50898
Electromyographic,50898
bisulfite,50898
calprotectin,50898
osmoregulation,50898
amino group,50898
HTC,50898
taxonomical,50898
anode,50898
Lachnospiraceae,50898
volume group,50898
Halimeda,50898
Long-term evolution,50898
Kd,50898
Erythrocyte sedimentation rate,50898
trophozoite,50898
histiocytes,50898
Tyto,50898
Col3A1,50898
Neuropathy,50898
RIETI,50898
radioresistance,50898
magnetic resonance elastography,50898
eucalypt,50898
dihydroxybenzoic acid,50898
J Orthop Res,50898
Pacific Biosciences,50898
synthon,50898
solar cycle,50898
cardiomyopathies,50898
PRC2,50898
trophic factor,50898
A46,50898
vacuolization,50898
electro-encephalography,50898
monoester,50898
polyacrylamide gel,50898
metatarsals,50898
Fructose,50898
HLM,50898
alkalic,50898
neuroendocrine tumor,50898
podocin,50898
bisphosphonate,50898
gross primary productivity,50898
serta,50898
massive parallel sequencing,50898
hepatitis A,50898
prolactin,50898
circumcision,50898
Bhutan,50898
labour induction,50898
Archean,50898
Dentures,50898
PRKCD,50898
Lyme disease,50898
GEF,50898
Bacteroidetes,50898
basalt,50898
cr.,50898
solidus,50898
GLUT2,50898
complex dynamics,50898
MORB,50898
neuromuscular blocking agents,50898
Gb,50898
CD103,50898
plant respiration,50898
cardiac muscle,50898
shoulder dystocia,50898
oxidising agent,50898
protein denaturation,50898
sulfation,50898
monotonic function,50898
Insulin detemir,50898
headspace,50898
Proprioceptive,50898
SUMO-2,50898
hypochlorite,50898
CDK5,50898
Transaldolase deficiency,50898
Thiopurine,50898
Statistical significance,50898
Philippine Sea Plate,50898
nuclear receptor,50898
glial markers,50898
neuromuscular junctions,50898
salivary microbiome,50898
bacterioferritin,50898
panretinal photocoagulation,50898
avert,50898
audiology,50898
green waste,50898
dangling bonds,50898
Z-disk,50898
occupational medicine,50898
stratovolcano,50898
castration,50898
micrometastases,50898
radioiodine,50898
Lena,50898
external beam radiotherapy,50898
tubular reabsorption,50898
network architecture,50898
complex age,50898
Connectome,50898
apocrine gland,50898
neurophenomenology,50898
progestin,50898
Time-trial,50898
Pelvic floor,50898
CVS,50898
Kasumigaseki,50898
global optimisation,50898
hypotension,50898
CAA,50898
TRY,50898
fault scarp,50898
Titin,50898
Pam,50898
intertextual,50898
mucinous,50898
Summertime,50898
lamina lucida,50898
5.17),50898
BCL2L13,50898
axon guidance,50898
Ipsilateral,50898
network meta-analysis,50898
Amphetamine,50898
cantharidin,50898
Biceps,50898
quantile normalization,50898
Levemir,50898
ELOVL4,50898
kinship coefficient,50898
glyceraldehyde,50898
kyanite,50898
mastitis,50898
Oportunidades,50898
HSD3B2,50898
praziquantel,50898
PH domain,50898
pelvic tumor,50898
N40,50898
gal,50898
Immunoprecipitation,50898
chondritic meteorites,50898
Gemella,50898
frameshift mutation,50898
TUNEL,50898
ion-channel,50898
psychopharmacologic,50898
thrombosed,50898
Unique identifier,50898
IRAK1,50898
calpain,50898
Trap1,50898
degree distribution,50898
BZLF1,50898
carbodiimide,50898
structure-based design,50898
PROP1,50898
diastolic pressure,50898
bed load,50898
phosphocreatine,50898
glutathione synthetase,50898
erosion surface,50898
Longum,50898
GAP,50898
TH17,50898
Southern Ocean,50898
PARP1,50898
autologous stem-cell transplantation,50898
Transketolase,50898
lamina densa,50898
Robustness,50898
intravenous iron,50898
GLUT4,50898
cardiogram,50898
intraventricular hemorrhage,50898
DYRK3,50898
vertical force,50898
ETM2,50898
conventional ventilation,50898
subducted,50898
natural killer cell,50898
Yttria,50898
Intertropical Convergence Zone,50898
Final analysis,50898
Real-time polymerase chain reaction,50898
trichostatin A,50898
Direct injection,50898
null result,50898
medical microbiology,50898
G. lamblia,50898
transient receptor potential channel,50898
Trinity,50898
Mutagen,50898
dune slack,50898
CRISM,50898
R-7,50898
web application,50898
epigenetic therapy,50898
Caspase-3,50898
AV valves,50898
PM10,50898
caldera,50898
plasma protein binding,50898
leukopenia,50898
orphan receptor,50898
exostoses,50898
Vida,50898
desiccation,50898
Chiyoda-ku,50898
Hepatotoxicity,50898
orbital eccentricity,50898
meteoric water,50898
Raman microscope,50898
dacarbazine,50898
ostracod,50898
geochronologic,50898
Serravallian,50898
chert,50898
amorphous calcium phosphate,50898
metasomatised,50898
DNA demethylation,50898
APHRODITE,50898
nonalcoholic fatty liver disease,50898
sillimanite,50898
ventromedial prefrontal cortex,50898
astrobiological,50898
Dissociative Experiences Scale,50898
roti,50898
G6PD,50898
beta sheets,50898
CYP1B1,50898
Fludrocortisone,50898
gastroscopy,50898
cytochrome C,50898
HDAC11,50898
TRRS,50898
Bacilli,50898
consultation procedure,50898
PARP,50898
type 1 error,50898
overdiagnosis,50898
ime,50898
HSF1,50898
esp,50898
ELN,50898
Actinobacillus,50898
Spectral clustering,50898
glucan,50898
Vitreous body,50898
Hypertrophy,50898
Transcription factor,50898
prostanoid,50898
Nucleus accumbens,50898
Myasthenia Gravis,50898
renal pelvis,50898
Dutch Cancer Society,50898
glutathione reductase,50898
FYN,50898
ankle-knee,50898
virginity,50898
muscle fascicle,50898
boundary point,50898
stone technology,50898
bioindicator,50898
lattice QCD,50898
CHOP,50898
Creatine kinase,50898
S. mansoni,50898
dyslipidemia,50898
tumor marker,50898
11 minutes,50898
Saturation,50898
siderophile,50898
trans position,50898
radiosynthesis,50898
perforant path,50898
antiepileptic,50898
myelosuppression,50898
precentral gyrus,50898
SRD5A1,50898
Crizotinib,50898
CFLAR,50898
Filtration fraction,50898
dunite,50898
pituitary tumor,50898
Erasmus MC,50898
breast implantation,50898
sodium acetate,50898
suspended load,50898
LXR,50898
Disintegration,50898
deep insight,50898
Osteopenia,50898
In utero,50898
Silvestre,50898
Muller cell,50898
exothermic,50898
QTc interval,50898
amylose,50898
umbilical arteries,50898
Phenotype,50898
Pontian,50898
oxysterols,50898
biomacromolecules,50898
vug,50898
Motor cortex,50898
couscous,50898
L-tryptophan,50898
depuration,50898
SANCO,50898
infundibular nucleus,50898
T-regulatory cell,50898
a610,50898
CASP3,50898
neural stem/progenitor cells,50898
scarp,50898
westerlies,50898
hospice,50898
myostatin,50898
dolomitization,50898
endmember,50898
LAMP1,50898
volcanic arc,50898
paleogeography,50898
topotecan,50898
EPHA1,50898
Abatacept,50898
KDM4B,50898
LIMK1,50898
bioluminescence imaging,50898
hip bone,50898
Atopobium vaginae,50898
eIF2,50898
microadenoma,50898
hypocalcemia,50898
cardiac PET,50898
ATX,50898
hydrological modelling,50898
The snails,50898
detachment fault,50898
Ross Ice Shelf,50898
PKM,50898
E-coli,50898
PTK2,50898
beta sheet,50898
Methylprednisolone,50898
hydroxybenzotriazole,50898
absorptive capacity,50898
exploratory laparotomy,50898
hASC,50898
AGTR1,50898
collagen III,50898
autonomic response,50898
endocannabinoids,50898
Leiden Open Variation Database,50898
Merdeka,50898
exonic splicing silencer,50898
NKCC1,50898
Voxels,50898
Spline,50898
uteri,50898
NRP1,50898
BRAF inhibitor,50898
genetic distance,50898
porins,50898
low-pass,50898
Intellectual disability,50898
Mus musculus,50898
paroxysmal atrial fibrillation,50898
subependymoma,50898
Melt inclusions,50898
phagocytose,50898
Gut microbiota,50898
Europa,50898
L-tyrosine,50898
FAT10,50898
DNAI2,50898
EZH1,50898
Notch signalling pathway,50898
parathyroid,50898
chlorpromazine,50898
gnostic,50898
sortase A,50898
ApoA-II,50898
elevated liver enzymes,50898
AGV,50898
pyridoxamine,50898
pertussis toxin,50898
reticulocytes,50898
growth chart,50898
HSPA1A,50898
anus,50898
DYRK1A,50898
neuronal plasticity,50898
foodborne pathogens,50898
Cumulative dose,50898
topmost,50898
chemoattraction,50898
COP9 signalosome,50898
Astrobiology,50898
ERBB4,50898
Aeolian,50898
Megasphaera,50898
Malakoff,50898
NRF2,50898
FAK,50898
Parvovirus B19,50898
neuroanatomy,50898
Restoration,50898
metabolic flux,50898
IL12,50898
gamma 2,50898
Rhyolite,50898
KDM6B,50898
Barcelona,50898
Aspergillus,50898
emboli,50898
DLP,50898
de minimis,50898
Rubisco,50898
telomeres,50898
hypomagnesemia,50898
incidentaloma,50898
intravasation,50898
extrusive,50898
Indian Ocean Dipole,50898
enamel organ,50898
Leiden University Medical Center,50898
Menin,50898
garlic,50898
groundwater recharge,50898
Effective dose,50898
demethylase,50898
uterine artery,50898
cellular senescence,50898
Carbogen,50898
placental abruption,50898
plasma stability,50898
organogenesis,50898
decreased respiration,50898
submandibular gland,50898
HEPES,50898
beta cell,50898
specific growth rate,50898
EPHA2,50898
tenable,50898
Piriformis,50898
x-type,50898
coronally,50898
NRP2,50898
influenza-like illness,50898
epigenetically,50898
EPHA3,50898
COPS2,50898
penis,50898
tienen,50898
lava lake,50898
IDM,50898
evaporitic,50898
ventilation support,50898
TLR3,50898
travertine,50898
MAPK1,50898
SUZ12,50898
pathognomonic,50898
basal lamina,50898
siderophile element,50898
Prevotella,50898
neonicotinoids,50898
secondary hyperparathyroidism,50898
Akt1,50898
care transition,50898
CLEC-2,50898
northern Hungary,50898
Manitoba,50898
ubiquitination,50898
intestinal crypt,50898
CFZ,50898
The unnatural,50898
Autoradiography,50898
supersaturated solution,50898
COL3A1,50898
staurolite,50898
simultaneous hermaphrodites,50898
geomorphologic,50898
dinoflagellates,50898
normetanephrine,50898
cord prolapse,50898
Geobacter sulfurreducens,50898
decompression melting,50898
tomographically,50898
K-feldspar,50898
The Middle,50898
aetiologies,50898
endocrine disorders,50898
Al-4,50898
Citrate,50898
pneumococcal vaccine,50898
pulmonary arteries,50898
vaginal microbiota,50898
EED,50898
adherens junctions,50898
biodegradability,50898
UNU-MERIT,50898
tariquidar,50898
language delay,50898
net primary productivity,50898
decompensation,50898
metamorphic grade,50898
TrkB,50898
aPTT,50898
bleeding diathesis,50898
FOLFOXIRI,50898
search cost,50898
body dysmorphic disorder,50898
musculus flexor carpi,50898
behavioral analysis,50898
simultaneous equations model,50898
Western Desert,50898
subway,50898
extreme risk,50898
Cyberball,50898
double bottom,50898
Panorama,50898
omnibus,50898
Fertility preservation,50898
computer-aided manufacturing,50898
two-body motion,50898
chromosomal abnormalities,50898
Segmented regression,50898
sports medicine,50898
agglomeration effects,50898
change management,50898
infundibulum,50898
Caries,50898
frequency domain,50898
Caprine,50898
continental margin,50898
uterine artery embolization,50898
fluoranthene,50898
oropharyngeal squamous cell carcinoma,50898
acute response,50898
clinical pathology,50898
worriers,50898
stomatal conductance,50898
missionary,50898
terpyridine,50898
Media Psychology,50898
NP-hard,50898
honesty-humility,50898
pertain,50898
cabbage white,50898
semi-vegetarian,50898
muon-catalyzed fusion,50898
Health Impact Assessment,50898
glossoptosis,50898
mindfulness-based stress reduction,50898
Allopurinol,50898
hydrologic cycle,50898
IPMA,50898
targeted treatments,50898
postpartum depression (PPD),50898
World Health Organisation (WHO),50898
vacuum ultraviolet,50898
Hebei,50898
sessile,50898
pharmacy,50898
squamous cell cancer,50898
cocontraction,50898
micronuclei,50898
charge conjugate,50898
acrylic,50898
time-sharing,50898
completely regular,50898
Positron Emission Tomography,50898
hydrocephalus,50898
Hera,50898
limnology,50898
subcutaneous tissue,50898
Occupational Cancer,50898
Promega,50898
amphibolite,50898
D-mannose,50898
KwaZulu-Natal,50898
molecular wires,50898
endodontics,50898
injury epidemiology,50898
Genesis II,50898
Ashton,50898
dental fluorosis,50898
overbank,50898
ATET,50898
vasomotor,50898
WCRA,50898
Fragile,50898
hamate bone,50898
initiation factor,50898
Theology Today,50898
KLM Royal Dutch Airlines,50898
secret sharing,50898
antiquark,50898
epigenetics,50898
behavior genetics,50898
existential crisis,50898
graph processing,50898
hourglass,50898
functional neuroimaging,50898
hPa,50898
ects,50898
Left ventricular hypertrophy,50898
organised crime,50898
Khoisan,50898
Carbon Disclosure Project,50898
semantic web,50898
B-spline,50898
Upper Miocene,50898
Cambridge Structural Database,50898
VLA,50898
Darwin,50898
Neoplasia,50898
actinobacterium,50898
hemispheric lateralization,50898
polynomial-time approximation scheme,50898
AUD,50898
attention deficit hyperactivity disorder,50898
long-term evolution,50898
solvent extraction,50898
muscle fibre,50898
Wurm,50898
Arlington,50898
fluoresces,50898
Lakoff,50898
instigators,50898
B. burgdorferi,50898
Outpatient clinic,50898
savings account,50898
nucleoid,50898
European Values,50898
lexis,50898
DV,50898
MacArthur,50898
Serious Gaming,50898
leaf-miner,50898
service economy,50898
ZnCl2,50898
conversation analysis,50898
Millennium Development Goals,50898
Porto,50898
Skiba,50898
angiogenesis inhibitors,50898
broccoli,50898
Encore,50898
OCE,50898
pathological functions,50898
Ebsco,50898
hematologic malignancies,50898
CGI script,50898
stress intensity,50898
nutrient cycling,50898
Living systems,50898
hydrogen production,50898
conservation priority,50898
SCIAMACHY,50898
rheumatologic,50898
i3,50898
dietary fiber,50898
interleukin 6 (IL-6),50898
spreadsheet,50898
antenna complex,50898
ten group,50898
computer game,50898
glabrous,50898
South East Queensland,50898
Trypsin,50898
excipient,50898
Posterior cortical atrophy,50898
tail risk,50898
proactivity,50898
ISMB,50898
media theory,50898
performance management,50898
Transmedia storytelling,50898
whipworm,50898
plan-do-study-act,50898
Collaborative Care,50898
intensity-modulated radiotherapy,50898
aperiodic,50898
team LottoNL-Jumbo,50898
tire,50898
social work,50898
adaptive control,50898
causal network,50898
sham feeding,50898
Disinformation,50898
World Climate Research Program,50898
Slovakia,50898
radiant heat,50898
grim,50898
coronary CT angiography,50898
gastrointestinal (GI) tract,50898
social robot,50898
functional central limit theorem,50898
VPN,50898
ketone,50898
angular distance,50898
intersectionality,50898
phase angle,50898
Dutch Hospital,50898
controlled drug,50898
European Chemicals Agency,50898
measuring rod,50898
veterinary medicine,50898
organizational ecology,50898
Literature review,50898
Shaun Gallagher,50898
senile plaques,50898
OL,50898
open land,50898
orchiectomy,50898
VS1,50898
integrated water resources management,50898
stellate ganglion,50898
predictive analytics,50898
periphyton,50898
periodontal ligament,50898
activity model,50898
IPAQ,50898
Childhood obesity,50898
periodontology,50898
Anguilla,50898
destabilise,50898
Human Genome Organisation,50898
clindamycin,50898
FIFA,50898
natural language processing (NLP),50898
artificial gravity,50898
radiolabelled,50898
chronic myeloid leukaemia,50898
waste disposal,50898
bloodborne,50898
rotation angle,50898
microphone,50898
sentinels,50898
weighing scale,50898
anaplastic astrocytoma,50898
humanist,50898
risk analysis,50898
Climbing injuries,24546
Early Warning Score,50898
Ignatius,50898
Hertfordshire,50898
Dionysus,50898
Crowdsourcing,50898
Roman Catholic,50898
asset class,50898
Posttraumatic Stress Disorder,50898
automatic call distributor,50898
extradition,50898
extracellular matrices,50898
arthroscopic surgery,50898
Chinese yam,50898
tetrahydrocannabinol,50898
intact forest,50898
Human Connectome Project,50898
Olympic sport,50898
orthotropic,50898
trimethoprim-sulfamethoxazole,50898
key performance indicators,50898
The alibi,50898
British literature,50898
oppida,50898
stenosed,50898
carrageenan,50898
nuclear power,50898
dilatometry,50898
nephrology,50898
Amsterdam Metropolitan area,50898
internist,50898
testosterone replacement therapy,50898
amnion,50898
neo-classical,50898
optogenetics,50898
esophagogastric junction,50898
input device,50898
adiabatic cooling,50898
pulmonary artery hypertension,50898
Marine Stewardship Council,50898
awkward,50898
precision medicine,50898
original 6,50898
phosphoribosyltransferase,50898
Rhodobacter,50898
Hebbian plasticity,50898
dragonflies,50898
Clinical Risk,50898
retributive justice,50898
reaction norm,50898
vesicle fusion,50898
VILI,50898
diffuse large B cell lymphoma,50898
thermogravimetric analysis,50898
abortion,50898
trabeculae,50898
Valles Marineris,50898
Zagros,50898
intra-individual variability,50898
dynamic capability,50898
cross-country skiers,50898
Bordetella,50898
knowledge-intensive organizations,50898
Netherlands Railways,50898
C8,50898
5-methylcytosine,50898
social movement studies,50898
Assertiveness,50898
Wide Reflective Equilibrium,50898
difference-in-difference,50898
Oulu,50898
latent variable,50898
motor vehicle theft,50898
reaction centre,50898
planar graph,50898
FDA,50898
myosin binding protein C,50898
positive externality,50898
Global Entrepreneurship Monitor,50898
Volatile organic compounds (VOCs),50898
tax reform,50898
intra-industry trade,50898
dysthymic disorder,50898
Yuka,50898
demyelinating disease,50898
autoclave,50898
human-computer interaction,50898
FIE,50898
upper half-plane,50898
atmospheric chemistry,50898
Betic Cordillera,50898
coronary stenting,50898
Pauline,50898
Perinatal mortality,50898
Wisdom,50898
International Military Tribunal,50898
ericaceous,50898
arginine vasopressin,50898
speechreading,50898
congenital lobar emphysema,50898
forest fire,50898
Baire space,50898
Danon disease,50898
obstructive sleep apnea (OSA),50898
multi-agent system,50898
DNA helicase,50898
love darts,50898
realist,50898
sphingosine 1-phosphate receptor,50898
geobiology,50898
methodological pluralism,50898
anovulatory,50898
distance decay,50898
Lefebvre,50898
pulse amplitude modulated,50898
dividend,50898
industrial heritage sites,50898
adaptive functioning,50898
care work,50898
NCCN,50898
photovoltaic,50898
Paralympic sport,50898
Kramer,50898
Goldfinger,50898
Non-Hodgkin Lymphoma,50898
We connect,50898
vibration isolation,50898
vorinostat,50898
corporate governance,50898
global cities,50898
zeaxanthin,50898
heterotrimeric G protein,50898
canines,50898
joint undertaking,50898
Dimensionality reduction,50898
Erasmus Medical Center,50898
health equity,50898
inbred strain,50898
per-capita income,50898
protozoan,50898
hypoxemia,50898
foundational theory,50898
hyperglucagonemia,50898
financial sector development,50898
predictable process,50898
family relations,50898
holometabolic,50898
chromatogram,50898
Acalymma vittatum,50898
demethylating agent,50898
annulation,50898
Hannah Arendt,50898
universalist,50898
consumerism,50898
data semantics,50898
atmospheric pressure chemical ionization,50898
aldermen,50898
Full surface,50898
yield curve,50898
simple random sample,50898
Munster Irish,50898
oncolytic adenovirus,50898
optic flow,50898
perinatal asphyxia,50898
Effectuation,50898
Berkeley,50898
reproductive tourism,50898
clavicular,50898
charcoal,50898
lasso regression,50898
Health Belief Model,50898
predestination,50898
Big Five personality traits,50898
ultra-red,50898
gun violence,50898
oxygen evolution,50898
cytoreduction,50898
tree snail,50898
Yaounde,50898
innate lymphoid cells,50898
Platyhelminthes,50898
postpartum hemorrhage,50898
executive dysfunction,50898
histone deacetylase inhibitor,50898
EFSA,50898
masculinities,50898
Stand Up,50898
salt pan,50898
CYP19A1,50898
theorem proving,50898
clinically depressed,50898
hoe,50898
undifferentiated somatoform disorder,50898
butterfly,50898
drug design,50898
informal social control,50898
Filaggrin,50898
market anomaly,50898
IJmuiden,50898
Huang Shui,50898
humanized monoclonal antibody,50898
paratext,50898
non-violent game,50898
Ascaris lumbricoides,50898
Z(4430),50898
Synchrony,50898
psychogeriatric,50898
satiety,50898
modernism,50898
Verapamil,50898
human epidermal growth factor receptor 2,50898
Regge trajectories,50898
Coupling,50898
Nordmann,50898
gray-scale,50898
single file,50898
C-201,50898
Face validity,50898
persistent organic pollutants,50898
PPADS,50898
formal equivalence,50898
Pneumococcus,50898
epiphenomenon,50898
Organizational Strategy,50898
superstructure,50898
SPAST,50898
BCL2L11,50898
obstruent,50898
psycholinguistics,50898
trade bloc,50898
Align Technology,50898
osmium,50898
participatory video,50898
full configuration interaction,50898
Fresnel diffraction,50898
Latin American Free Trade Association,50898
photophobia,50898
EASO,50898
patch testing,50898
codimension,50898
Activity Theory,50898
cadherin,50898
detrusor,50898
Zhejiang Province,50898
afterlife,50898
CNRs,50898
DMAP,50898
US presidential election,50898
knowledge integration,50898
Trametinib,50898
SH2D1A,50898
microvillus,50898
"1,3-dipolar cycloaddition",50898
physical organic chemistry,50898
left ventricular hypertrophy,50898
breast-conserving surgery,50898
latent viruses,50898
Lebanon,50898
randomized control trial,50898
Item Response Theory,50898
antiporter,50898
Social Communication,50898
ring games,50898
Antimicrobial peptides,50898
hydrothermal synthesis,50898
A 63,50898
pseudomyxoma peritonei,50898
elephant,50898
alternating current,50898
mismatch repair,50898
International Criminal Court,50898
100 mothers,50898
iOS,50898
apsides,50898
Panta Rhei,50898
International Prognostic Index,50898
Hamilton Depression Rating Scale,50898
CI group,50898
geodetic,50898
HER2 positive,50898
NTRK1,50898
pyelonephritis,50898
xenotransplant,50898
World Cancer Research Fund,50898
filamin,50898
FKBP5,50898
G6pc,50898
mannan,50898
leucite,50898
Western Blot,50898
C. muridarum,50898
crevasse,50898
quotient,50898
Malabsorption,50898
situs inversus,50898
Hashimoto,50898
chorioamnionitis,50898
Protura,50898
Antalya,50898
mid-latitudes,50898
Graciosa,50898
neuroprotective agent,50898
UGT1A1,50898
Genmab,50898
Maastricht University,50898
Glycocalyx,50898
enteroviral,50898
SDHB,50898
East Siberian Sea,50898
hyperphosphorylation,50898
ACVR2B,50898
FLUXNET,50898
single-walled carbon nanotube (SWCNT),50898
rib fracture,50898
information-age,50898
dan Weinstein,50898
opsin,50898
pyroclastic,50898
TH2,50898
EMDR,50898
ENz,50898
KI-67,50898
schistosome,50898
marco,50898
CDKN1A,50898
sampling error,50898
magma ocean,50898
Molecular modeling,50898
immunoglobulins,50898
Succinate dehydrogenase,50898
tibial nerve,50898
Caspian Sea,50898
thyroiditis,50898
CB1R,50898
emergency medical services,50898
phospholamban,50898
taxane,50898
discriminant function analysis,50898
perinatology,50898
magmatic arc,50898
3T3-L1,50898
splays,50898
plasma active,50898
B-9,50898
Philadelphia chromosome,50898
hydroxyurea,50898
EudraCT,50898
tunica media,50898
muscarinic receptor,50898
FLT3,50898
Henle,50898
subvolcanic,50898
Keizer,50898
decanoate,50898
foam cells,50898
Thysanura,50898
Genetic deletion,50898
Fuerteventura,50898
Gram-positive bacteria,50898
camel,50898
active tectonics,50898
bile duct injury,50898
RPS6KC1,50898
Zanclean,50898
tyramine,50898
OATP1B1,50898
Z score,50898
efferocytosis,50898
Treponema pallidum,50898
Ibrutinib,50898
apnoea,50898
Abcg2,50898
Silurian,50898
oportunidades,50898
Bruch,50898
casp3,50898
Neuropharmacology,50898
PLN,50898
alpha 7,50898
stromal cell-derived factor 1,50898
field system,50898
Diplopoda,50898
Sahara,50898
UPS,50898
salt export,50898
Symphyla,50898
Pico,50898
"Healy, Alaska",50898
OATP1B3,50898
ophiolite,50898
ARG1,50898
microvilli,50898
Schizosaccharomyces,50898
Watchful waiting,50898
SDF-1,50898
enchondroma,50898
aragonite,50898
cardiothoracic,50898
aq,50898
Enzalutamide,50898
monocarboxylate transporter,50898
EP2,50898
CO2 lasers,50898
bethanechol,50898
whooping cough,50898
oligohydramnios,50898
Spinal cord stimulation,50898
PI3K-AKT pathway,50898
biome,50898
agouti-related peptide,50898
NBER,50898
gonadal hormones,50898
habia,50898
mechanoreceptors,50898
fluid attenuated inversion recovery,50898
daerah,50898
flood basalt,50898
luz,50898
neuronal migration,50898
demethylation,50898
baryte,50898
G protein,50898
QA/QC,50898
phonolitic,50898
polycomb,50898
hemorrhagic infarct,50898
immuno-oncology,50898
NR3C2,50898
Aquitaine,50898
alkylating agents,50898
podosome,50898
pathfinding,50898
capillarity,50898
proopiomelanocortin,50898
castration-resistant prostate cancer,50898
Secretory vesicles,50898
Saccharomyces paradoxus,50898
The contrast,50898
Fatra,50898
Blood plasma,50898
alpha-mannosidase,50898
protolith,50898
PSEN1,50898
invadopodia,50898
Segura river,50898
asthenia,50898
nerve conduction study,50898
cytochrome p450,50898
sperm motility,50898
lyse,50898
DAB1,50898
PSEN2,50898
polar vortices,50898
Peking University,50898
palaeontological,50898
ecological collapse,50898
Oxaliplatin,50898
PiB,50898
ANGPT2,50898
gap junctions,50898
glioblastomas,50898
sumoylation,50898
uridine monophosphate,50898
sensorimotor cortex,50898
Pichia pastoris,50898
seismic reflection data,50898
metal-organic,50898
chronobiological,50898
l-arginine,50898
Pelizaeus-Merzbacher,50898
full agonist,50898
Therapeutic drug monitoring,50898
subaerial,50898
dock,50898
PGF,50898
LKB1,50898
flagellin,50898
Anatolian Plateau,50898
SEMA3A,50898
interindividual variability,50898
Hyperaldosteronism,50898
Lung cancer screening,50898
proteolipid protein,50898
culm,50898
Gale Crater,50898
PECAM-1,50898
ameloblast,50898
transfer coefficient,50898
total sperm count,50898
phreatomagmatic,50898
plant functional type,50898
myosin light chain kinase,50898
Anti-inflammatory,50898
ganciclovir,50898
G6PD deficiency,50898
Lannemezan,50898
BTK,50898
neritic,50898
Genetic variability,50898
EXT1,50898
non-volatile,50898
fractional sodium excretion,50898
Paneth cell,50898
VCAM1,50898
TNFRSF11B,50898
greenstone,50898
SOCS3,50898
bathyal,50898
active continental margin,50898
lusitropic,50898
fluoroscopic,50898
nomograms,50898
Deadline,50898
balanced growth path,50898
sustainability governance,50898
MetOp-A,50898
Paleoclimate Modelling Intercomparison Project,50898
juvenile offender,50898
shelf life,50898
maxillofacial surgery,50898
generating function,50898
behavioural activation,50898
functional food,50898
Rutgers,50898
social impact bonds,50898
Ethanol,50898
anole,50898
perturbative calculations,50898
rhythmanalysis,50898
progeroid,50898
Auckland,50898
organic solar cells,50898
Granger causality,50898
Memorial Sloan Kettering,50898
macular oedema,50898
tomosynthesis,50898
singular perturbation,50898
angiopoietin-2,50898
Iodine-131,50898
personality test,50898
introduced species,50898
Interbellum,50898
generalised linear model,50898
crop yield,50898
Pulmonary artery,50898
San Jose,50898
channel efficiency,50898
vinorelbine,50898
The Ergonomics Society,50898
Amplicon,50898
technoscience,50898
nutrition label,50898
strategic choice,50898
C-band,50898
molecular switch,50898
biosensing,50898
open-shell,50898
Thromboelastometry,50898
development zones,50898
Magu District,50898
mass cytometry,50898
iodine-125,50898
Collimonas,50898
Jaccard similarity,50898
graben,50898
golden ratio,50898
cognitive strategy,50898
mass communication,50898
proportional hazards model,50898
percentage body fat,50898
audiometry,50898
stratified random sample,50898
endoanal ultrasound,50898
sovereign wealth fund,50898
LUMC,50898
hernia,50898
kung fu,50898
astrobiology,50898
Rey-Osterrieth Complex Figure,50898
Marco Borsato,50898
Hammett,50898
Downscaling,50898
magnetoencephalographic,50898
Lombardy,50898
antidumping,50898
penicillin G,50898
intonation,50898
Chronic pain,50898
End-of-life care,50898
Single center,50898
disposable,50898
agent-based model,50898
Social Cognitive Theory,50898
oscillator strength,50898
Dutch police force,50898
llama,50898
ABI/INFORM,50898
oligoastrocytoma,50898
National Child Development Study,50898
heavy menstrual bleeding,50898
aneuploidies,50898
employee surveillance,50898
decision theory,50898
aviophobia,50898
debris avalanche,50898
hindsight bias,50898
microfluidics,50898
Rosenberg Self-esteem Scale,50898
developmental disabilities,50898
potentiodynamic,50898
inescapable,50898
cone beam CT,50898
nitrile,50898
psychosurgery,50898
principal-agent theory,50898
event-driven,50898
Savoy cabbage,50898
Good Environmental Status,50898
asymmetric simple exclusion process,50898
NVIDIA,50898
National Health Insurance Scheme,50898
SCCHN,50898
chr,50898
thermal fluctuations,50898
cyclic process,50898
Wittig olefination,50898
2+2,50898
bioelectrochemical,50898
secondary sex characteristics,50898
High frequency,50898
forest degradation,50898
canonical correlation,50898
Quadriceps,50898
VIP,50898
perimenopausal,50898
Lisbon Treaty,50898
Curvature,50898
Trichuris trichiura,50898
hemorrhagic shock,50898
TNO,50898
endocrine disruptor,50898
Algarve,50898
motion perception,50898
coherent light,50898
dental restoration,50898
cryo-electron tomography,50898
presidential election,50898
tor,50898
single-member district,50898
tic disorder,50898
Impact assessment,50898
PROMETHEE,50898
edentulism,50898
motor protein,50898
Myeloid,50898
age stratification,50898
tin,50898
spiral computed tomography,50898
moral hazard,50898
Deafness,50898
salt marsh,50898
Taenia solium,50898
antibody-drug conjugate,50898
The Dentist,50898
groundwater pollution,50898
occupational therapists,50898
hot issue,50898
serovar,50898
mobility disability,50898
disease-modifying antirheumatic drugs,50898
scarcity rent,50898
sociometric,50898
polypharmacy,50898
Arcachon Bay,50898
Victimisation,50898
ossifying fibroma,50898
Rosenberg Self-Esteem Scale,50898
molluscicide,50898
external eye,50898
MTL,50898
catecholaminergic,50898
PG-13,50898
continental flood basalt,50898
perennial plant,50898
Personality pathology,50898
lipopolysaccharides,50898
copulas,50898
claw,50898
P3G,50898
Iraq,50898
adhesive wear,50898
standard normalization,50898
embodied cognition,50898
cold dark matter,50898
obligate intracellular parasites,50898
contact potential difference,50898
SDSS,50898
American Jewish,50898
persecutory,50898
joint laxity,50898
CHartographY,50898
BIM,50898
neuromodulator,50898
aryl hydrocarbon receptor (AhR),50898
limited series,50898
UTAUT,50898
hold-up problem,50898
ecclesiology,50898
chemical weapons,50898
preclinically,50898
killer apps,50898
Tunis,50898
Reformed,50898
selenoprotein,50898
Herod,50898
Social science,50898
Andersen,50898
thermostat,50898
KLM,50898
Arnoud van Halen,50898
implicit bias,50898
dielectric barrier discharge,50898
Impurity,50898
Traverse,50898
Oddball,50898
mixed group,50898
energy methods,50898
Dioscorea,50898
polypyrrole,50898
disengagement theory,50898
ExoMars,50898
life review,50898
Seddon,50898
Longitudinal study,50898
multiple displacement amplification,50898
green belt,50898
canonicity,50898
foundationalism,50898
"1,3-bisphosphoglycerate",50898
nicotinic receptors,50898
crew resource management,50898
gymnosperms,50898
transfinite,50898
disposable income,50898
systematic risk,50898
Heppner,50898
radioulnar,50898
myelokathexis,50898
maladaptation,50898
software metrics,50898
floorball,50898
search theory,50898
Cluster A,50898
multiple baseline design,50898
Android,50898
La Tene,50898
gramicidin,50898
conductive atomic force microscopy,50898
Clinical Global Impression,50898
blood stream infection,50898
Bert Keizer,50898
KEGG,50898
minuscule,50898
valence orbital,50898
48hours,50898
Kaplan-Meier curves,50898
neurosurgeon,50898
Vibration,50898
Ann Arbor,50898
time-series analysis,50898
phase retrieval,50898
Ossur,50898
PTEN hamartoma tumor syndrome,50898
time-of-flight mass spectrometer,50898
Sidama zone,50898
unitarity,50898
extinction probability,50898
jurisprudence,50898
pharmacist,50898
Maronite,50898
neurophysiology,50898
stomatitis,50898
Festen,50898
rapid-acting antidepressant,50898
skin repair,50898
global positioning system (GPS),50898
transcranial alternating current stimulation,50898
Dynamic Energy Budget,50898
crowdsourcing,50898
allylic alcohol,50898
etching,50898
Flores,50898
Huang He,50898
sliding window,50898
Adolf Eichmann,50898
posterior parietal cortex,50898
Gromacs,50898
terrane,50898
"46,XY karyotype",50898
transversality,50898
moisturiser,50898
RNAseq,50898
Magnetic Resonance Spectroscopy,50898
Cohort study,50898
Soil compaction,50898
Bipolar Disorder,50898
PrPSc,50898
hypoxaemia,50898
sodium fluoride,50898
green electricity,50898
Nord-Trondelag,50898
Clozapine,50898
social psychology,50898
CB1,50898
Principlism,50898
palliative medicine,50898
neoclassical economic theory,50898
pulmonary vessels,50898
Moi,50898
genetically modified bacteria,50898
representational content,50898
ventilatory threshold,50898
CNTN4,50898
The negotiation,50898
Bulgarian,50898
The assistants,50898
pericardium,50898
progranulin,50898
Langevin,50898
alkaline lake,50898
primary somatosensory cortex,50898
Clinical Practice Research Datalink,50898
morphogens,50898
Carcinus maenas,50898
safety integrity level,50898
aircraft engine,50898
Adaptive control,50898
Hidden Markov Models,50898
n29,50898
anthropological literature,50898
CHAT,50898
projection plane,50898
strain energy,50898
human centered design,50898
lithological,50898
pulmonary disease,50898
macular degeneration,50898
pre-exposure prophylaxis,50898
Salmonella Typhimurium,50898
perceived organizational support,50898
polycythemia vera,50898
hatchling,50898
hypothesis testing,50898
Radiotracers,50898
organizational theory,50898
labor productivity,50898
acetylcholinesterase,50898
invertase,50898
designed experiments,50898
African plate,50898
molecular marker,50898
petrogenesis,50898
AIM2,50898
cholinergic receptor,50898
Diffusion Tensor Imaging,50898
Single-nucleotide polymorphisms,50898
suramin,50898
trace fossil,50898
implicit learning,50898
nutritional deficiencies,50898
optogenetic,50898
aquatic insect,50898
mark-to-market,50898
epistatic,50898
Macular degeneration,50898
ECHA,50898
PINO,50898
bipartite,50898
anguilla,50898
skin cell,50898
Altiplano,50898
pseudomorphs,50898
Zwolle,50898
standardized test,50898
Cre-LoxP,50898
hybrid algorithm,50898
hemofiltration,50898
urban spatial structure,50898
artificial neural networks,50898
ARSA,50898
R-package,50898
primary progressive aphasia,50898
ISCED,50898
Tsetse flies,50898
Polymita picta,50898
Rural Development Program,50898
bryophyte,50898
nanofibers,50898
co-citation,50898
fundus examination,50898
extracorporeal shockwave therapy,50898
aminobisphosphonates,50898
haplotype map,50898
invariant chain,50898
photoanode,50898
eubacteria,50898
ninhydrin,50898
nuclear charge,50898
Functional magnetic resonance imaging (fMRI),50898
follicular thyroid carcinoma,50898
Diazepam,50898
PCDitch,50898
hydrogenase,50898
Cucumis,50898
free radicals,50898
pyrrolidone,50898
content management,50898
arterial thromboembolism,50898
nitroglycerine,50898
witness seminar,50898
osteolytic,50898
grapefruit,50898
Six Sigma,50898
vivid,50898
frugal innovation,50898
dictator game,50898
STATA,50898
EBS,50898
topic modeling,50898
papillary muscles,50898
electron correlation,50898
input-output model,50898
Pasteurella,50898
Humerus,50898
Mino,50898
phosphodiesterase,50898
DrugBank,50898
standard definition,50898
intermediate filaments,50898
balance sheet,50898
nontuberculous mycobacteria,50898
Cowen,50898
black carbon,50898
ice rafted debris,50898
Eubacterium,50898
plasmacytoid dendritic cells,50898
blocking antibody,50898
The narrative,50898
Joule heating,50898
hagiography,50898
WSB,50898
bipolar disorder I,50898
immunogold labelling,50898
laptop computer,50898
social partnership,50898
river terrace,50898
greater trochanter,50898
Data warehouse,50898
real number,50898
good manufacturing practice,50898
Salinispora tropica,50898
purple bacterium,50898
FW,50898
ethanol fuel,50898
Liparis loeselii,50898
antibiotic-associated diarrhea,50898
haze,50898
Pieris brassicae,50898
debiasing,50898
orthant,50898
DBA,50898
Molecular modelling,50898
stationary distribution,50898
computer-supported collaborative learning,50898
capacity management,50898
DNA mismatch repair,50898
active fault,50898
bulk viscosity,50898
hypodermic needle,50898
Genomatix,50898
ANGPT1,50898
Triglycerides,50898
steroidogenic enzyme,50898
post-transplant lymphoproliferative disorder,50898
Akt inhibitor,50898
filtration fraction,50898
Wnt3a,50898
Caspase,50898
STC1,50898
radiotracer,50898
pharmaceutics,50898
isotopic fractionation,50898
beta cells,50898
oribatid,50898
RAD21,50898
SELE,50898
LY294002,50898
coactivator,50898
interlobular,50898
River Rhine,50898
Tgfb1,50898
sophisticated approach,50898
KDR,50898
drosophila,50898
matrix metalloprotease,50898
mediastinal lymphadenopathy,50898
PET radiotracer,50898
enzalutamide,50898
thymine,50898
hyperkinesis,50898
cross-protective,50898
Northern branch,50898
MMP9,50898
Fluid attenuated inversion recovery,50898
ppar,50898
vacuolar-type H+-ATPase,50898
v-ATPase,50898
paracellular transport,50898
posterior cortical atrophy,50898
crypt,50898
Mer,50898
vasoprotective,50898
dental enamel,50898
Christmas flood,50898
Asymptomatic bacteriuria,50898
histone deacetylase,50898
guiar,50898
mantle convection,50898
HIV test,50898
Phaseolus,50898
quota sampling,50898
post-hoc analysis,50898
Hyperbaric Oxygen Therapy,50898
labour productivity,50898
super-resolution,50898
Directive 2009/28/EC,50898
triangle,50898
PETM,50898
cerebellar granule cell,50898
somitogenesis,50898
renal filtration,50898
identity politics,50898
somatic symptom disorder,50898
global justice,50898
affinity maturation,50898
high fidelity,50898
VFF,50898
highest education,50898
LUMINA,50898
rush hour,50898
otology,50898
methylarginine,50898
Bleed air,50898
La Celia,50898
Medicare,50898
Victorian,50898
non-binary,50898
2-hydroxyglutarate dehydrogenase,50898
trinitarian,50898
Photosystem II,50898
Mono Lake,50898
CED,50898
WWII,50898
sperm donor,50898
asymmetric induction,50898
muscle hypertrophy,50898
Carbamate,50898
internet forum,50898
animal study,50898
center stage,50898
Y-intercept,50898
autumnal moth,50898
The set-up,50898
Bulgaria,50898
Eldercare,50898
Woronin bodies,50898
SIMCA,50898
nicotinic agonists,50898
ring-closing metathesis,50898
Delaunay,50898
misunderstood,50898
innovation system,50898
Italian peninsula,50898
Indian Ridge,50898
left eye,50898
BI-RADS,50898
BGP,50898
carbonic anhydrase IX,50898
Jiaodong Peninsula,50898
Keratinocyte,50898
epithelial dysplasia,50898
objective response rate,50898
Transition metal,50898
prehypertension,50898
South West,50898
status attainment,50898
reputation management,50898
computational chemistry,50898
regional rail,50898
sequencer,50898
melting pot,50898
advanced level,50898
SP-A,50898
flowchart,50898
high-throughput sequencing,50898
nurse-midwives,50898
Language development,50898
Zeus,50898
pork tapeworm,50898
Viva,50898
Tamil Nadu,50898
Kamijo,50898
medical specialty,50898
social map,50898
hydrolytic enzymes,50898
factor IX,50898
semantic matching,50898
keloid scar,50898
power Doppler,50898
TDP,50898
Oligohydramnios,50898
informational privacy,50898
petrographically,50898
acquiesce,50898
Malunion,50898
Triple product,50898
socio-technical system,50898
NHIS,50898
atmospheric boundary layer,50898
Anorectal manometry,50898
Business Source Premier,50898
panel analysis,50898
myosin II,50898
glial cell,50898
stretched exponential,50898
blepharitis,50898
countercyclical,50898
spin polarization,50898
glyceraldehyde-3-phosphate,50898
INQ,50898
base station,50898
perovskite,50898
clinical magnetic resonance imaging,50898
eye tracking,50898
sacrament,50898
Zhejiang,50898
PEDOT,50898
atypical antipsychotics,50898
amoxicillin-clavulanate,50898
selenoprotein P,50898
untraceable,50898
clear history,50898
Theodore Beza,50898
magic,50898
micro-generation,50898
axoneme,50898
kinesin,50898
Jeju Island,50898
apsis,50898
Cluttering,50898
Partial melting,50898
piconewtons,50898
Functional Skills,50898
uterotonic,50898
risk attitude,50898
artificial photosynthesis,50898
infraclavicular,50898
drag force,50898
n-type,50898
gel point,50898
photochemical reaction,50898
The learning curve,50898
relative growth rate,50898
Co-stimulation,50898
Dizziness,50898
European Union Directives,50898
data dictionaries,50898
network congestion,50898
bioremediation,50898
copulation,50898
continuous signal,50898
Chloral hydrate,50898
in-situ hybridization,50898
cystocele,50898
Qaidam,50898
metamorphosed,50898
doctor-patient relationship,50898
cosmopolitanism,50898
scoliosis,50898
cardiac catheterization,50898
"Washington, D.C., USA",50898
syngeneic,50898
Feynman,50898
asymptotic analysis,50898
Canary Islands,50898
fertility tourism,50898
prophylactic mastectomy,50898
Gohberg,50898
NOX2,50898
first-past-the-post,50898
membrane fluidity,50898
flood mitigation,50898
The scar,50898
John Monteith,50898
industrial action,50898
CARD domain,50898
delayed puberty,50898
colorimeter,50898
Nexus,50898
exposure assessment,50898
Galatians,50898
male-to-female transsexual,50898
unwanted births,50898
conspecific,50898
contrast sensitivity,50898
bacillus,50898
Beck anxiety inventory,50898
long common,50898
calcium-channel blocker,50898
pulp chamber,50898
Clogging,50898
beryllium,50898
ADOS,50898
Minimum Spanning Tree,50898
volleyball,50898
cerebral amyloid angiopathy,50898
Pigouvian tax,50898
Casuistry,50898
Scots Law,50898
indeterminacy,50898
paean,50898
psychological adaptation,50898
substantia nigra,50898
mandatory military service,50898
exclusive economic zone (EEZ),50898
group psychotherapy,50898
eye tracker,50898
ethylation,50898
sensorineural hearing loss,50898
steady-state levels,50898
Paleoproterozoic,50898
CBA,50898
LROC,50898
Trauma Screening Questionnaire,50898
funiculus,50898
community hospital,50898
Thunb.,50898
Smith & Nephew,50898
karate,50898
multiplexed,50898
Yukawa potential,50898
Framingham Risk Score,50898
jejunitis,50898
netilmicin,50898
tubewell,50898
Hadrian,50898
non-refoulement,50898
Goynuk,50898
Encephalopathy,50898
handcycling,50898
Cheaters,50898
passive control,50898
word processor,50898
methyl viologen,50898
antigen processing,50898
municipality,50898
First World War,50898
glenoids,50898
typological,50898
background subtraction,50898
Rijksmuseum Amsterdam,50898
rent-seeking,50898
chi-square tests,50898
disinvestment,50898
Dutch West India Company,50898
oncogenomics,50898
statistical relational learning,50898
Subduction,50898
X-12,50898
catechol-O-methyltransferase,50898
Coupled Model Intercomparison Project,50898
exocrine,50898
non-functional requirements,50898
normative commitment,50898
Gender equality,50898
Meningioma,50898
diffusion Monte Carlo,50898
Receiver Operating Characteristic,50898
total 1,50898
silane,50898
sky positions,50898
arylsulfatase,50898
Rade,50898
feature selection,50898
arbuscular mycorrhizal fungi,50898
full factorial,50898
metasedimentary,50898
Triangulation,50898
IEC 61508,50898
annulment,50898
PSYCHINFO,50898
Chaiyaphum,50898
D9,50898
high-pressure system,50898
patient reported outcome measures,50898
Clutch,50898
CB,50898
type theory,50898
memory T-cells,50898
insurance fraud,50898
Complex systems,50898
contactin,50898
CTNNB1,50898
polluter pays principle,50898
network topologies,50898
prodromal stage,50898
multilevel modeling,50898
motor drive,50898
professional boundaries,50898
chronic toxicity,50898
Blastocyst,50898
Karyotype,50898
NPC1L1,50898
Ergonomics Society,50898
DAWN mission,50898
medical surveillance,50898
RMF,50898
ecometrics,50898
uniform continuity,50898
retroactive interference,50898
rapeseed oil,50898
aggradation,50898
lottery,50898
atmospheric scientist,50898
o-phthalaldehyde,50898
diffuse interstellar band,50898
emotional dissonance,50898
Confrontation,50898
pronase,50898
neurofibrillary tangle,50898
Reykjavik,50898
detailed assessment,50898
unimolecular,50898
Epidermal Growth Factor Receptor (EGFR),50898
Foucault,50898
carbamazepine,50898
Reggio-Emilia,50898
health score,50898
social norm,50898
genotypical,50898
pancreatic tumor,50898
National Comorbidity Survey Replication,50898
coherentism,50898
Chemokine,50898
complete active space,50898
Direct Marketing Educational Foundation,50898
Social skills training,50898
Usnea,50898
Newcastle,50898
gene-finding,50898
FOV,50898
IOC,50898
Legal Amazon,50898
trade association,50898
Bohemian Massif,50898
dinoprostone,50898
molecular genetics,50898
AFV,50898
behavioral addiction,50898
Creole,50898
ACT-R,50898
X-6,50898
I-0,50898
Equilibrium,50898
pulmonary angiography,50898
data normalization,50898
river basin management plans,50898
North Atlantic Ocean,50898
Bahamas,50898
BAP1,50898
response variable,50898
behaviorism,50898
pediatric dentistry,50898
Hayward,50898
psycholinguistic,50898
insulin analog,50898
Amiloride,50898
proactive learning,50898
Streetwise,50898
LTB4,50898
H-index,50898
cellular Potts model,50898
trichotillomania,50898
Continuing Professional Development,50898
CGA,50898
bipartite graph,50898
meconium,50898
vegan,50898
scrapie,50898
MISTRAL,50898
intercostal muscles,50898
TAC,50898
naturalist,50898
disinfection by-products,50898
Multidrug resistance,50898
peripheral nerve injury,50898
OntoUML,50898
Kit ligand,50898
denumerable,50898
multiple abnormalities,50898
totipotent,50898
Q-9,50898
polynomial time,50898
Social Neuroscience,50898
phosphine oxide,50898
grey literature,50898
postmodernist,50898
supercell,50898
non-degeneracy,50898
PCLake,50898
Value-at-Risk,50898
autozygosity,50898
chemical precipitation,50898
hypoplastic,50898
semantic wiki,50898
enamel fluorosis,50898
robotic surgery,50898
University Medical Center Utrecht,50898
free expansion,50898
Zimbabwe,50898
moisture recycling,50898
conditional distribution,50898
perforators,50898
Notonecta,50898
Structural Equation Modeling,50898
diffraction-limited,50898
salbutamol,50898
self-interaction,50898
vascular endothelial growth factor,50898
Austrian Space Forum,50898
smooth consumption,50898
Baseflow,50898
animal scientists,50898
Metrology,50898
Astrocytes,50898
Mayo Foundation,50898
foreign body,50898
cyberball,50898
duration models,50898
Clinton,50898
white wine,50898
Pixels,50898
Vitamin B,50898
Guiana Shield,50898
Acetylcholine,50898
suturing,50898
Redox,50898
subpial,50898
Lymphopenia,50898
African Shield,50898
Genetic testing,50898
lung transplantation,50898
first-degree atrioventricular block,50898
inter-rater agreement,50898
forty-four,50898
Genetic variation,50898
Caregiver,50898
transit delay,50898
organized crime,50898
Western Highlands,50898
Latino,50898
Mather,50898
hospital-acquired infection,50898
Trypanosome,50898
Cognitive Science,50898
codetermined,50898
The possession,50898
Kesten,50898
SGP,50898
enterococci,50898
Hemorrhage,50898
benzyl iodide,50898
glucocorticosteroids,50898
carry trade,50898
fighter,50898
ultracold gases,50898
orthognathic surgery,50898
anal canal,50898
BBC1,50898
heteroaromatic,50898
scaling relationships,50898
glutathione peroxidase,50898
narcotic,50898
gravitational lens,50898
intertrial priming,50898
Medicaid,50898
iodine-124,50898
gamma-proteobacteria,50898
hydrophobic force,50898
Diophantine equation,50898
carrying-capacity,50898
auditory cortex,50898
climate feedback,50898
Cryopreservation,50898
Ecometrics,50898
synthesizable,50898
kinesin-1,50898
computed tomography (CT) scan,50898
DJIA,50898
Type I error,50898
UV spectroscopy,50898
medical imaging,50898
Tanner staging,50898
feature search,50898
Creative Commons,50898
two-dimensional crystal,50898
Care Inspectorate,50898
sensitivity tests,50898
lytic infection,50898
Birchwood,50898
The offspring,50898
gold electrode,50898
Online database,50898
Long-term care,50898
immunosuppressive medication,50898
monogamous,50898
Biotic Ligand Model,50898
bent knee,50898
Xeon Phi,50898
Sleeping Beauty,50898
Information processing,50898
directory,50898
Bergen,50898
autoregressive fractionally integrated moving average,50898
subtle ways,50898
law abiding citizen,50898
brassicaceous,50898
ACSS,50898
user-centered design,50898
antihypertensives,50898
integrated body,50898
lysophosphatidylcholine,50898
developmentally disabled,50898
Dow Jones,50898
criticality levels,50898
karyogram,50898
decision problem,50898
Meta-,50898
pediatric endocrinologists,50898
genetic divergence,50898
Yale-Brown Obsessive Compulsive Scale,50898
soil structure,50898
COX-1,50898
aftereffects,50898
Evita,50898
galactomannan,50898
auditor,50898
volcanic glass,50898
prosthodontic,50898
Melphalan,50898
blood clotting,50898
Eastern Anatolia,50898
Protein Data Bank (PDB),50898
infinitism,50898
microdata,50898
axonotmesis,50898
Early access,50898
Cloninger,50898
EDGE,50898
white pulp,50898
Philipsdam,50898
Cyclosporin A,50898
growth medium,50898
chemical industry,50898
Paul Crutzen,50898
indigenous peoples,50898
Daily Record,50898
health point,50898
Proteasome,50898
immune-mediated disease,50898
Linear Bottleneck Assignment Problem,50898
African sleeping sickness,50898
Floer homology,50898
niche partitioning,50898
Diabetes Care,50898
CrowdFlower,50898
mixed integer,50898
anaerobic metabolism,50898
2SLS,50898
stress testing,50898
gravitational-wave astronomy,50898
Jutland,50898
chlorhexidine digluconate,50898
polynomial equation,50898
Value-at-risk (VaR),50898
Transient Ischemic Attack,50898
Traceable,50898
spatial gradient,50898
firn,50898
perceptual organization,50898
soil moisture sensors,50898
Root canal,50898
surface science,50898
Fox,50898
TOCE,50898
AdaBoost,50898
total solar irradiance,50898
Perforation,50898
Silver nitrate,50898
scanning probe microscopy,50898
blue-green algae,50898
galvanic vestibular stimulation,50898
foamy macrophages,50898
MSL,50898
matched-filtering,50898
Hamilton-Jacobi-Bellman,50898
signal recognition particle,50898
GSSP,50898
Penn State,50898
time domain,50898
reconnaissance,50898
KBFF,50898
European American,50898
mesoderm,50898
reverse engineering,50898
otoscopy,50898
inhaled corticosteroid,50898
collective action problem,50898
polyvinylpyrrolidone,50898
Brest,50898
Endometriosis,50898
linguistic meaning,50898
AIC,50898
Least squares,50898
The argument,50898
polyol,50898
cotinine,50898
fuel ladder,50898
Ataxic,50898
Thorstein Veblen,50898
label-free quantification,50898
Pareto efficiency,50898
brain pathology,50898
Goes,50898
categorical variable,50898
aspect ratio,50898
pharmaceutical product development,50898
stratified sampling,50898
presupposition,50898
heart transplant,50898
cytotoxic T-cells,50898
gastrointestinal flora,50898
humanoid,50898
Bush,50898
diffuse lung disease,50898
postmodern philosophy,50898
Perceived control,50898
Justinian,50898
Bayesian model averaging,50898
subnetwork,50898
multi-class classification,50898
arterial switch,50898
somatic mutation,50898
Dawley,50898
elotuzumab,50898
dizygotic twin,50898
Sarah Palin,50898
United Nations Environmental Programme,50898
factor income,50898
optic radiation,50898
social attachments,50898
supercomputing,50898
STEPPS,50898
Estonian,50898
epidermal differentiation complex,50898
Monaco,50898
mixed-member proportional system,50898
checkpoint inhibitor,50898
workflow engine,50898
uterine tumors,50898
non-alignment,50898
Big Five,50898
Flemish Community,50898
Patent Cooperation Treaty,50898
earlobe,50898
Heston model,50898
intertextuality,50898
submarine,50898
Dublin,50898
life cycle inventory,50898
Sacculina carcini,50898
flagellum,50898
hot sauce,50898
Pensacola,50898
Science City,50898
slippery slope,50898
frequency response function,50898
Hough transform,50898
gadodiamide,50898
ICQ,50898
uniform scaling,50898
humanised monoclonal antibody,50898
Dry season,50898
panic attacks,50898
discectomy,50898
Taylor series,50898
MEK1,50898
overflow metabolism,50898
adhocracies,50898
plasma channel,50898
pediatric dentists,50898
RP.,50898
wave energy,50898
pericentric inversion,50898
translocator protein,50898
EISA,50898
HCN1,50898
hepatocellular adenoma,50898
repeated-measures design,50898
proglacial lake,50898
genetic counselor,50898
Transglutaminase,50898
Selection algorithm,50898
epileptic foci,50898
Angular momentum,50898
inguinal hernia surgery,50898
high anxiety,50898
sigmoidoscopy,50898
Almere,50898
phosphane,50898
risk-loving,50898
Fabricius,50898
continuous distribution,50898
induced magnetic field,50898
metathesis,50898
orally active,50898
Marginalization,50898
asexually,50898
programming models,50898
pluripotent,50898
age discrimination,50898
German language,50898
Objectification,50898
lab-on-a-chip,50898
tropicamide,50898
Ovalbumin,50898
Mycobacterium smegmatis,50898
endoparasitic,50898
Primary healthcare,50898
orbital forcing,50898
nurse-midwife,50898
climate change concerns,50898
axonal transport,50898
tartrate-resistant acid phosphatase,50898
dichlorodiphenyldichloroethylene,50898
postmodern,50898
Gita,50898
invagination,50898
environmental determinism,50898
vodka,50898
actinobacteria,50898
linear extrapolation,50898
photonic crystal,50898
Harpenden,50898
soma,50898
snowball sampling,50898
Quarteira,50898
earth system dynamics,50898
transgender,50898
trans women,50898
C4.5,50898
mir-17,50898
Barrovian,50898
pentraxin,50898
heterotoma,50898
hysteroscopic,50898
Palaeolithic,50898
THW,50898
obstructive lung disease,50898
Diabetes Mellitus,50898
cognitive architecture,50898
Routine Activity Theory,50898
Bruton,50898
Atresia,50898
splicing factor,50898
factorial experiment,50898
Paul Sarasin,50898
RER Line E,50898
trinitarianism,50898
diesel oil,50898
Fitts,50898
dendrochronological,50898
electronic waste,50898
OeWF,50898
saline solution,50898
thylakoid membrane,50898
Partial correlation,50898
mouthguard,50898
clinical dementia rating,50898
war heroes,50898
antipodal,50898
blood-brain-barrier,50898
Modena,50898
bet-hedging,50898
rational drug design,50898
Early Eocene,50898
Ecuador Amazon,50898
numeracy,50898
self-consistent field,50898
cesarean deliveries,50898
fictional character,50898
linear programming relaxation,50898
classic media,50898
LDLr,50898
postsynaptic density,50898
Item response theory,50898
NLRC4,50898
clinical neurophysiology,50898
TNF-related apoptosis-inducing ligand,50898
predator-prey interaction,50898
scorpion venoms,50898
differential geometry,50898
lix,50898
boudinage,50898
basal-cell carcinoma,50898
Nisyros,50898
Stromboli,50898
bone cell,50898
local minimum,50898
acute limb ischemia,50898
social presence,50898
Prestige,50898
Tensor,50898
nannoplankton,50898
NR3C1,50898
biceps,50898
euryhaline,50898
SLR,50898
independent component analysis,50898
security sector,50898
The strain,50898
apheresis,50898
massively parallel,50898
phalloplasties,50898
pharaonic Egypt,50898
AXIN1,50898
square matrix,50898
Modulus,50898
outer enamel epithelium,50898
hidden Markov model,50898
glaciolacustrine,50898
EBI3,50898
Gold Coast,50898
ordinary differential equations (ODE),50898
cytoskeletal network,50898
MUFA,50898
common pool resource,50898
Protamine,50898
PsychInfo,50898
Ann Arbor stage,50898
Quirke,50898
sonographer,50898
metadynamics,50898
geoengineering,50898
homology theories,50898
Anterior segment,50898
western boundary current,50898
Marshallian,50898
Centenarian,50898
antidiarrheals,50898
diagnostic validity,50898
SPL,50898
disattenuation,50898
Alizarin,50898
reactive transport model,50898
Atlantic Revolutions,50898
KBr,50898
Psychopathic Personality Inventory,50898
steppe,50898
birth rate,50898
emergentist,50898
metabolic flux analysis,50898
Atlantic Multidecadal Oscillation,50898
hematoxylin-eosin,50898
Earth System Model,50898
anti-epileptic drugs,50898
Dermatitis,50898
constitutive androstane receptor,50898
thermochronology,50898
LEGO Mindstorms,50898
spin-orbit coupling,50898
Aspergillosis,50898
organophosphorus,50898
varroa mite,50898
hormonal contraceptive,50898
multiverse,50898
GEC,50898
distribution coefficient,50898
bond length,50898
intranasal administration,50898
cuboctahedral,50898
40kg,50898
breed,50898
collembola,50898
API,50898
female-to-male transsexual,50898
Game Theory,50898
expectation bias,50898
patent foramen ovale,50898
regression discontinuity,50898
lateral ventricles,50898
retinoid,50898
nucleotide diversity,50898
Absenteeism,50898
polysomnography,50898
psychiatric services,50898
lamellae,50898
injury severity score,50898
current protocols,50898
microsatellite analysis,50898
OSIRIS,50898
subfertile women,50898
C reactive protein,50898
Florida,50898
National Health Laboratory Service,50898
diol,50898
tree ring,50898
PsycInfo,50898
N-cadherin,50898
SHAPE,50898
compost,50898
Xsens,50898
arithmetic intensity,50898
Panzer,50898
non-word,50898
maximum capacity,50898
Latin American studies,50898
civil registry,50898
Swifterbant,50898
social construct,50898
integer program,50898
platinum group elements,50898
coherence length,50898
social democratic,50898
bootstrap methods,50898
radial nerve,50898
International Myeloma Working group,50898
blood-cerebrospinal fluid barrier,50898
Scleroderma,50898
industrial relations,50898
tumor hypoxia,50898
waveguide,50898
anthracotheres,50898
DILI,50898
Hernia,50898
skin prick testing,50898
vector flow,50898
network oscillations,50898
perioperative mortality,50898
outer core,50898
eddies,50898
monoamines,50898
hectare,50898
gamification,50898
Adenoma,50898
OWL,50898
deconvoluted,50898
Silvio Berlusconi,50898
business agility,50898
RS-1,50898
Eisenia fetida,50898
LUX,50898
philosophical writings,50898
two-photon microscopy,50898
surgical oncology,50898
Stoke-on-Trent,50898
Berg,50898
Factor I,50898
Odense University Hospital,50898
Life Cycle Assessment,50898
transistor,50898
X-linked recessive disorders,50898
NRM,50898
Arctic sea ice,50898
COLDFIRE,50898
drug-related crime,50898
European League,50898
solar PV,50898
Goniometry,50898
MEK2,50898
ten months,50898
Damour,50898
NDVI,50898
surveyor,50898
gag reflex,50898
developmental psychopathology,50898
variational Bayes,50898
UNEP,50898
disaster risk reduction,50898
Statistical inference,50898
etal,50898
protein kinase inhibitor,50898
Q-PCR,50898
Dichloroacetate,50898
type locality,50898
squelch,50898
Southern Europe,50898
epidemiological surveillance,50898
Georgia,50898
Ni-Cd,50898
European Economic Area,50898
assisted conception,50898
hypovolemic,50898
Fabry-Perot cavity,50898
Epirrita autumnata,50898
stylet,50898
discrimination learning,50898
negative affectivity,50898
occupational crime,50898
Positive And Negative Syndrome Scale,50898
Lesser Caucasus,50898
monomorphic,50898
disinformation,50898
evolution strategy,50898
folate receptor alpha,50898
Tryptase,50898
The desire,50898
K101,50898
hereditary diffuse gastric cancer,50898
gender theory,50898
emollient,50898
ketoglutarate,50898
Royal Dutch Mathematical Society,50898
phonetic,50898
West-Friesland,50898
artificial turf,50898
bounding box,50898
Dagoretti,50898
path analysis,50898
complex conjugation,50898
emotional labor,50898
support surface,50898
curbed,50898
Lysis,50898
kekulene,50898
Work engagement,50898
Personality Psychology,50898
protein docking,50898
Elo rating system,50898
traditional engineering,50898
generator matrix,50898
CHRNA5,50898
Impedance cardiography,50898
cervical lymph nodes,50898
bone densitometry,50898
manifest file,50898
Ochrolechia,50898
Drug resistance,50898
idiopathic pulmonary fibrosis,50898
evolutionary algorithm,50898
birthing positions,50898
simple algorithm,50898
cross entropy,50898
cluster sampling,50898
online focus groups,50898
para-nitroaniline,50898
SD 115,50898
Nazi Germany,50898
mental model,50898
Corpus iuris civilis,50898
biological tissue,50898
optical transient,50898
authentication,50898
obstipation,50898
TAC.,50898
Scholten,50898
Croatia,50898
foregut,50898
Facies,50898
Feldspar,50898
Predictability,50898
nuisance factors,50898
e.g. time,50898
coarse-grained models,50898
Lubeck,50898
habitat destruction,50898
LLH,50898
FTSE,50898
microdissection,50898
Paris Agreement,50898
Stokes formula,50898
teddy bear,50898
hypsithermal,50898
actinic light,50898
common garden snail,50898
hazard functions,50898
cognitive remediation,50898
flux balance analysis,50898
natural orifice transluminal endoscopic surgery,50898
trigonal bipyramidal,50898
black mustard,50898
neural coding,50898
Stroop Task,50898
Protestantism,50898
photon polarization,50898
Langacker,50898
duplexes,50898
heterogeneous catalysis,50898
General Health Questionnaire,50898
occupational therapy,50898
phytotoxic,50898
nauplii,50898
implicit self-esteem,50898
wave breaking,50898
progressive muscle relaxation,50898
GAL,50898
RAMESES,50898
puerperal,50898
particulate organic matter,50898
extracellular polymeric substances,50898
energy policy,50898
lycophytes,50898
Free Aceh Movement,50898
Aspergillus nidulans,50898
Enactivism,50898
phosphodiesterase inhibitor,50898
subordinated debt,50898
paracrine signalling,50898
digital light processing,50898
catabolized,50898
PDLLA,50898
mental health professional,50898
tributary,50898
INPP5D,50898
epicontinental,50898
PDZ domain,50898
eversion,50898
Database mining,50898
Harm Avoidance,50898
Bucharest,50898
standardised approach,50898
frequency-modulated,50898
Bowdle,50898
Vemurafenib,50898
potassium chloride,50898
Obama,50898
Factor XIIIa,50898
Muscle fatigue,50898
vegetation succession,50898
preimage,50898
Erythropoiesis,50898
MLwiN,50898
complex metal hydride,50898
Femtosecond,50898
prototype compound,50898
Tumor hypoxia,50898
statistical survey,50898
ergic,50898
humanized mouse,50898
Magnetic resonance imaging,50898
Catastrophic injury,50898
geothermal,50898
Eppendorf,50898
Confidence interval,50898
Perceptrons,50898
sonohysterography,50898
progeria,50898
orange juice,50898
Ultraviolet,50898
functionalist,50898
Charnockite,50898
plutonic,50898
mica,50898
Carbon Nanotubes,50898
central dogma,50898
pluripotent stem cells,50898
lattice constant,50898
MVN,50898
bone morphogenetic protein 2,50898
subscapular,50898
plasmacytosis,50898
Phase transformation,50898
Northeast Brazil,50898
neptunium,50898
Laerdal,50898
Marian devotion,50898
Benzodiazepine,50898
DRS,50898
cytoglobin,50898
Standardized mortality ratio,50898
endoparasitoid,50898
Orthodontics,50898
distributed knowledge,50898
life sciences,50898
Myocardium,50898
orthosteric agonists,50898
total hip arthroplasty,50898
Cytolysis,50898
normal modes,50898
ASTIS,50898
flow map,50898
Ottobock,50898
Topotecan,50898
planar chirality,50898
Random forest,50898
CHRNA3,50898
approximation ratio,50898
BRICHOS,50898
hamstrings,50898
The ID,50898
Mwanza,50898
4 minutes,50898
bronchoscope,50898
Adaptive Behavior,50898
Cobb angle,50898
groundmass,50898
homothetic preferences,50898
neuroplastic,50898
Ladona,50898
secondary stress,50898
trustor,50898
17-ketosteroid,50898
AGIR,50898
Qualitative analysis,50898
mortgage loan,50898
antiepileptic drug,50898
multi-symptom,50898
vertex presentation,50898
Royal Society,50898
carbon tetrachloride,50898
TVT,50898
heterotrophs,50898
telepresence,50898
Brassica nigra,50898
Joseph Biden,50898
Creed,50898
CD133,50898
breast biopsy,50898
gender-variant,50898
psychedelic,50898
CMD.,50898
general anxiety disorder,50898
isocenter,50898
Bose-Einstein condensate,50898
primary visual cortex (V1),50898
Meteorus,50898
computational model,50898
FANCD1,50898
cooperative group,50898
Concord,50898
population growth rate,50898
papillary renal cell carcinoma,50898
stalactitic,50898
barter,50898
nonmem,50898
fluorobenzene,50898
Agis,50898
Hominin,50898
36 hours,50898
7 women,50898
sphingomyelinase,50898
Siberian Shelf,50898
Basel III,50898
shotgun sequencing,50898
seroconvert,50898
G4s,50898
Anglo-American philosophy,50898
granuloma,50898
Nematode,50898
Incontinence,50898
MTHFR,50898
Revised Trauma Score,50898
Yale,50898
activation energies,50898
cell signaling,50898
clinical sign,50898
INFORMS,50898
surgical stress,50898
Alkmaar,50898
haemolymph,50898
apsidal precession,50898
organic anion transporting polypeptide,50898
ellipsometry,50898
quantifiability,50898
Bahamian,50898
probabilistic logic,50898
extremophiles,50898
Homo floresiensis,50898
pregnane X receptor,50898
glucose tolerance test,50898
Fredholm theory,50898
agilent,50898
tetraquark,50898
high availability,50898
Chlorella vulgaris,50898
true religion,50898
C-37,50898
Autoregressive model,50898
cervix uteri,50898
hydroxyl radical,50898
knowledge extraction,50898
SAIL,50898
small bowel biopsies,50898
Zhou,50898
range reporting,50898
replicon,50898
linear response theory,50898
Tamils,50898
Genome-Wide Complex Trait Analysis,50898
attentional deficits,50898
back-of-the-envelope calculation,50898
clathrate hydrate,50898
imaging genetics,50898
Esau,50898
Nikkei,50898
WARA,50898
psychopharmacology,50898
growth plates,50898
KWG,50898
L1-norm,50898
chymotrypsinogen,50898
RNA-sequencing,50898
motorway,50898
Newborn Screening,50898
Jacobaea vulgaris,50898
isometric contraction,50898
Sus scrofa,50898
forest inventory,50898
fracking,50898
DNA Damage,50898
Cervical Cancer,50898
podiatrist,50898
TDDFT,50898
Cataract,50898
What You Know,50898
2099,50898
window prostitution,50898
beta-secretase 1,50898
Chromatin immunoprecipitation,50898
Emergency Severity Index,50898
baptism,50898
RMSD,50898
debugging,50898
VVD,50898
ETS2,50898
anterior pelvic tilt,50898
crush injury,50898
hematopoietic stem cells (HSCs),50898
alginate,50898
normal life,50898
N72,50898
bone age,50898
Significance level,50898
volcaniclastic,50898
ITGA11,50898
Maya,50898
climate sensitivity,50898
mixture density,50898
placental alkaline phosphatase,50898
methylisothiazolinone,50898
polarized light,50898
internal os,50898
Hematopathology,50898
semi-permeable membrane,50898
Eurodollars,50898
interregnum,50898
business intelligence,50898
escitalopram,50898
gas-chromatography,50898
blackface,50898
ADHD rating scale,50898
DJ,50898
consumer electronics,50898
ISMN,50898
field-effect transistor,50898
familial aggregation,50898
proline-rich protein,50898
keratoconjunctivitis sicca,50898
terrestrial ecosystem,50898
Wikinews,50898
electrical impedance,50898
Obsessive Compulsive Disorder,50898
compressibility,50898
coronary sclerosis,50898
PAAG,50898
tractable problem,50898
porosimetry,50898
trans-fatty acids,50898
biogas digester,50898
neural development,50898
ADAM10,50898
charge conjugation,50898
pyknotic,50898
fibrinolytics,50898
Callitropsis nootkatensis,50898
relative height,50898
mitophagy,50898
nonlocality,50898
environmental impact assessment,50898
workflow management system,50898
maximum likelihood estimation,50898
hematopoietic stem cells,50898
water quality modelling,50898
Matthiola,50898
peak oil,50898
chronic myelomonocytic leukemia,50898
MRT,50898
septet,50898
gaf,50898
lunar,50898
screw cap,50898
prepulse inhibition,50898
dwarf shrub,50898
PRC,50898
gender transition,50898
Central Anatolia,50898
calanoid,50898
monofilament,50898
adenomyosis,50898
muscle spindle,50898
"46,XY individuals",50898
presbycusis,50898
Hounsfield Units,50898
NLRP1,50898
violaxanthin,50898
Ichneumonidae,50898
Julius,50898
concentric hypertrophy,50898
palatum,50898
year 0,50898
pituitary adenoma,50898
Swiss Plateau,50898
African Easterly Jet,50898
CA19-9,50898
MOSFET,50898
Bandung,50898
MSG,50898
bioisosteric,50898
general instrument,50898
Postural sway,50898
"Washington, DC",50898
Immanuel Kant,50898
Soil acidity,50898
Rutherford,50898
hydroponic,50898
open-access,50898
subventricular,50898
orthopyroxene,50898
neurotensin,50898
cloud fraction,50898
hourglass treefrog,50898
PSG,50898
arthrogryposis multiplex congenita,50898
phenological,50898
Pauli repulsion,50898
inland dune,50898
Web Ontology Language,50898
auto-tuning,50898
farm income,50898
Cyrus,50898
Hadley Centre,50898
two-point discrimination,50898
network dynamics,50898
Mycobacterium bovis,50898
Early Pleistocene,50898
sensorimotor rhythm,50898
collagen I,50898
tooth brushing,50898
antibacterial peptides,50898
Lewy body disease,50898
bone morphogenetic protein-2,50898
MFIS,50898
galactosidase,50898
CC BY-NC-SA,50898
programming paradigm,50898
soil degradation,50898
The long memory,50898
Anesthesia,50898
IEC,50898
winter Olympic Games,50898
ventrolateral prefrontal cortex,50898
Sexual Dysfunction,50898
Edom,50898
Xanten,50898
behavioral addictions,50898
The N,50898
cytochrome bc1,50898
primitive cubic,50898
macrophage migration inhibitory factor,50898
sleep diary,50898
microtransplantation,50898
diazepane,50898
stimulated emission,50898
instrumental temperature record,50898
thirteen women,50898
herpesviridae,50898
Level 1 trauma center,50898
Hopf bifurcation,50898
Montana,50898
high throughput screen,50898
cross validation,50898
exercise prescription,50898
isopropanol,50898
thaw depth,50898
pterygium,50898
K-T,50898
high time,50898
PKN2,50898
sepharose,50898
SFA,50898
Rumex,50898
illumina,50898
micronutrients,50898
CAPRI,50898
plastoquinone,50898
marginal stability,50898
Andalusia,50898
Desmond,50898
Giambattista Marino,50898
VDA,50898
superficial palmar arch,50898
tonic-clonic,50898
Mount Pinatubo,50898
feedback-controlled,50898
persuasive technology,50898
tannin,50898
Arp2/3 complex,50898
loan-to-value ratio,50898
structural engineering,50898
tectonic plate,50898
heartwood,50898
23S rRNA,50898
CHD3,50898
Le projet,50898
DIVERSITAS,50898
PSD-95,50898
numerical analysis,50898
CD160,50898
European Union regulation,50898
relational theory,50898
Baltic Sea,50898
N43,50898
discovery program,50898
knowledgebase,50898
Morse theory,50898
symbolic communication,50898
Romania,50898
superior frontal gyrus,50898
phycobilins,50898
ninety-three,50898
dynamic equilibrium,50898
Zebra,50898
dasatinib,50898
embryoid bodies,50898
Centrifugation,50898
exome,50898
ora,50898
protein fold,50898
elastic modulus,50898
Health Score,50898
echelle grating,50898
internal validity,50898
vitamin B12 deficiency,50898
blood typing,50898
The samples,50898
lattice model,50898
regenerative process,50898
Fyn,50898
orography,50898
patriciate,50898
ellipticities,50898
arthropathy,50898
DDL,50898
Cotesia glomerata,50898
climate change feedback,50898
exploratory search,50898
Surabaya,50898
varicose veins,50898
Langmuir-Blodgett,50898
3 women,50898
dike,50898
o-ring,50898
Salmonella enteritidis,50898
flavin adenine dinucleotide (FAD),50898
Duderstadt,50898
centenarian,50898
Monte Carlo integration,50898
pseudopotential,50898
Adjuvant radiotherapy,50898
Freud,50898
Psychotropic drugs,50898
EPO,50898
nutritional science,50898
red light district,50898
Biomathematical,50898
eschatological,50898
alkaline batteries,50898
implementation plans,50898
sciatic,50898
laceration,50898
monaural,50898
red meat,50898
Chagas disease,50898
Carcinoembryonic antigen,50898
neuregulin,50898
carboxyl group,50898
visible spectrum,50898
NDH-2,50898
representationalist,50898
RNA Recognition Motif,50898
late life depression,50898
stereogenic centre,50898
Schneiderian membrane,50898
RER E,50898
Tube feeding,50898
threshold model,50898
alarm fatigue,50898
Alcohol Use Disorders Identification Test,50898
freethinker,50898
maritime law,50898
polycistronic,50898
Magnetic Resonance Imaging (MRI),50898
H3K27Ac,50898
Ovulation induction,50898
graphite,50898
Palivizumab,50898
Marginal zone,50898
Path analysis,50898
Sore throat,50898
parafovea,50898
werden,50898
ventricular septum,50898
bowel cancer,50898
pta,50898
relapse prevention,50898
Given Imaging,50898
health law,50898
Cross-presentation,50898
CPC group,50898
interest rate channel,50898
Walter Veltroni,50898
lamina,50898
Beirut,50898
Dermis,50898
heat generation,50898
European Free Trade Association,50898
ammonium hydroxide,50898
2008 Mumbai terrorist attacks,50898
termination status,50898
reduced density matrix,50898
Ludwigshafen,50898
pectoralis major,50898
high protein diet,50898
photoluminescent,50898
High High,50898
PVV,50898
LAMP,50898
readability formulas,50898
trapezius,50898
guanidinoacetate,50898
Earth days,50898
bistable,50898
Immunohistochemistry (IHC),50898
kernel density estimates,50898
Brutto,50898
vertical jump,50898
Collagen,50898
BAbs,50898
mode coupling,50898
Casimir,50898
asymptotic stability,50898
anaphase-promoting complex,50898
low-light,50898
template language,50898
global inequality,50898
SciELO,50898
hypercapnic,50898
Damages,50898
Cumulative incidence,50898
dogma,50898
spectral counting,50898
imperialism,50898
CHRNB4,50898
antibody therapy,50898
network theory,50898
B. burgdorferi infection,50898
furin,50898
IPA,50898
omega-3 fatty acid,50898
hydroxyethyl methacrylate,50898
tocolytic agent,50898
Sanger,50898
autotriggering,50898
spacesuit,50898
Weighted gene co-expression network analysis,50898
FCGR3B,50898
Pyrosequencing,50898
family law,50898
death penalty,50898
coxibs,50898
Fscn1,50898
C21,50898
Research Domain Criteria,50898
atrioventricular septal defect,50898
plastoquinol,50898
Probit model,50898
deep scratches,50898
calBP,50898
amphiphysin,50898
Acartia tonsa,50898
yolk sac,50898
Miscarriage,50898
amoxicillin/clavulanic acid,50898
quorum-sensing,50898
cholinergic agonists,50898
wettability,50898
P symmetry,50898
drug interaction,50898
hybrid functional,50898
Epstein-Barr Virus,50898
Under-reporting,50898
szomolnokite,50898
Undibacterium,50898
brain cell,50898
congenic,50898
data validation,50898
KALRN,50898
photoreception,50898
Standard error,50898
In Dementia,50898
Population modeling,50898
fainting,50898
Silicone,50898
soul,50898
red-light district,50898
coprological,50898
Libya,50898
sodium phosphate,50898
Secretome,50898
Voorburg,50898
facial palsy,50898
universal design,50898
Quebec,50898
neuroma,50898
Owen,50898
Reading Ease,50898
wetland methane emissions,50898
RER Line A,50898
hapticity,50898
Italian wine,50898
tropical cyclone,50898
E-glass,50898
Visual analogue scale,50898
cross-immunity,50898
glycolipids,50898
blacklist,50898
proctalgia fugax,50898
morphogen,50898
mass extinctions,50898
Deinococcus radiodurans,50898
myeloproliferative,50898
ipsatized,50898
corticobasal degeneration,50898
individual assessment,50898
prefab,50898
South Africa today,50898
nitroprusside,50898
passive margin,50898
CSS1,50898
migmatitic,50898
Factor II,50898
Trail-Making test,50898
Dental plaque,50898
removable partial denture,50898
periodate,50898
mid-ocean ridge,50898
cre-recombinase,50898
intergenic spacer,50898
Kyoto protocol,50898
INPE,50898
Immunoassay,50898
Photoluminescence,50898
Magu district,50898
Rog,50898
electron transfer dissociation,50898
phycobilisomes,50898
Impulsiveness,50898
Permeation,50898
smelting,50898
bioorthogonal chemistry,50898
tree decomposition,50898
trophism,50898
siderophore,50898
baseflow,50898
trade mark law,50898
forgetting,50898
private arrangements,50898
radiation oncologist,50898
Knickpoint,50898
Venlo,50898
non-alcoholic fatty liver disease,50898
Calanus,50898
flow speed,50898
GELA,50898
large extra dimensions,50898
Heidegger,50898
maximum likelihood method,50898
Paranoid,50898
tumor microenvironment,50898
linear discriminant analysis,50898
pars descendens,50898
tolcapone,50898
Odonates,50898
pathogenic response,50898
noisy data,50898
lorvotuzumab mertansine,50898
biological databases,50898
targeted individuals,50898
differential association,50898
3-methylglutaconic aciduria,50898
wait list control group,50898
essential oil,50898
continuous wave,50898
kin discrimination,50898
z-test,50898
religious fundamentalism,50898
nuclear pleomorphism,50898
triphenyl phosphate,50898
electrical resistance,50898
Disease burden,50898
rhinophyma,50898
symptomatic intracerebral hemorrhage,50898
Life expectancy,50898
cholecystokinin,50898
hyperpigmentation,50898
forensic genetics,50898
Mediterranean Diet,50898
GPA,50898
anal verge,50898
choreoathetosis,50898
GVA,50898
NICS,50898
Shared decision-making,50898
liver fluke,50898
New South Wales,50898
unbundled,50898
Systems Biology Markup Language (SBML),50898
CLEC12A,50898
titania,50898
bulk modulus,50898
Bronze Age,50898
carfentanil,50898
glutarate,50898
respiratory quotient,50898
Acinetobacter baumannii,50898
calcareous nannofossils,50898
cryogenic,50898
anti-social behavior,50898
Locus,50898
ion-mobility spectrometer,50898
brain biopsy,50898
Ljubljana,50898
temperate forest,50898
Bistability,50898
tack,50898
Psychometrics,50898
social dominance orientation,50898
Fentanyl,50898
Insulin Resistance,50898
Scanning Electron Microscopy (SEM),50898
Wiley Online Library,50898
Childhood cancer,50898
ecotone,50898
molecular motor,50898
data publishing,50898
footfalls,50898
CD244,50898
speech therapy,50898
paraproteins,50898
volatilization,50898
IUPAC,50898
neurofilament proteins,50898
anemophilous,50898
Wilson loop,50898
bright light therapy,50898
Turkana Basin,50898
cyclic peptide,50898
cubic graph,50898
dosimeter,50898
ENIGMA2,50898
serum iron,50898
suppuration,50898
Future Earth,50898
Nicholas Sanders,50898
Karnofsky performance status,50898
Visual Analogue Scale,50898
Nrg,50898
Schlieren,50898
Lungs,50898
iPad,50898
Mitomycin C,50898
dysfunctional families,50898
predicate,50898
Airbus A380,50898
de 41,50898
exponential decay,50898
mesothelin,50898
Caerwys,50898
Endangered species,50898
two-hybrid screening,50898
main dolomite,50898
triphosphate,50898
sheltered housing,50898
maximum-likelihood estimate,50898
quasi-biennial oscillation,50898
mellitus,50898
spastic paraplegia,50898
The choice,50898
United States Virgin Islands,50898
Semantics,50898
cell ablation,50898
Tetrahymena thermophila,50898
atheist,50898
Chlorpyrifos,50898
IGF1R,50898
relative merits,50898
Angiotensin,50898
USGS,50898
Ischaemic heart disease,50898
dentaries,50898
phycobiliprotein,50898
Dynamic Programming,50898
morphogenetic events,50898
continuous variation,50898
availability heuristic,50898
Arbitrage,50898
Krein space,50898
corticioid fungus,50898
microcarrier,50898
Mandobo,50898
densitometry,50898
helminthes,50898
primary antibody,50898
neomycin,50898
Hunger Winter,50898
Essential tremor,50898
mastication,50898
behavioural techniques,50898
Everolimus,50898
deoxygenation,50898
tarsals,50898
Langenberg,50898
Pacific oyster,50898
Ceramide,50898
ophthalmoscope,50898
Ferrocene,50898
gauge invariant,50898
Hall coefficient,50898
posturography,50898
lambda calculus,50898
osseointegrated,50898
Lost,50898
nonrenewable resource,50898
triiodide,50898
ventral stream,50898
TIMPs,50898
Paratethys Sea,50898
Bildung,50898
bibliotherapy,50898
rutile,50898
counterfactuals,50898
ITV,50898
strange attractors,50898
Second World War,50898
Tagus,50898
scotochromogenic,50898
Neurofibromatosis type 2,50898
neoangiogenesis,50898
mesonephros,50898
forum theatre,50898
landscape evolution model,50898
language impairment,50898
plant hormones,50898
Disintegrin,50898
Zeno,50898
implied volatility surface,50898
sealers,50898
methadone,50898
recurrent respiratory papillomatosis,50898
cyclometalation,50898
podcast,50898
Informed consent,50898
epidermodysplasia verruciformis,50898
ATP-binding cassette (ABC) transporter,50898
terror management theory,50898
late blight,50898
Montagne,50898
cooperatively breeding,50898
Altenburg,50898
European elections,50898
RNA editing,50898
Social anxiety disorder,50898
Potts model,50898
Stop TB Partnership,50898
International Osteoporosis Foundation,50898
AVH,50898
myopathies,50898
Western Cape,50898
laurate,50898
suborder,50898
capital flight,50898
Aleksandr Yakovlevich Khinchin,50898
Diamondback,50898
Vitamin A deficiency,50898
Rickettsia,50898
Obsessive-Compulsive Disorder,50898
Motor proteins,50898
acetyl group,50898
Deoxycytidine,50898
game players,50898
Entrapment,50898
ecotropic,50898
Load balancing,50898
upflow anaerobic sludge blanket,50898
Hyperplasia,50898
Delamination,50898
Aplasia,50898
sensu stricto,50898
CuCl2,50898
holomorphic,50898
Protein kinase A (PKA),50898
Complex Regional Pain Syndrome,50898
nebivolol,50898
saccadic eye movement,50898
probability distribution function,50898
Transient elastography,50898
Nemaline myopathy,50898
metrizable,50898
trade union,50898
Gallstone ileus,50898
pluton,50898
Alexander,50898
diagnostic agent,50898
stress fractures,50898
molybdenum,50898
Thiazolidinediones,50898
Congenital diaphragmatic hernia,50898
ameloblastoma,50898
Srebrenica,50898
community integration,50898
Marcel Mauss,50898
loyalties,50898
Acropora,50898
Forel,50898
tandem running,50898
Calabria,50898
Emmanuel,50898
statistical process control,50898
Pricing strategies,50898
trauma surgery,50898
goal orientation,50898
internal oblique,50898
Sluys,50898
Climate Prediction Center,50898
Moral hazard,50898
Magnier,50898
Betaseron,50898
peridinin,50898
perfluorinated compounds,50898
invasive alien species,50898
evolutionary ecology,50898
paroxetine,50898
well-ordered,50898
mesoscopic,50898
Kinesin,50898
life programme,50898
Synaptic vesicle,50898
protein NMR,50898
Bielefeld,50898
Resource distribution,50898
Hall probe,50898
Enteropathy,50898
portfolio management,50898
hydrogen-based economy,50898
keratocystic odontogenic tumor,50898
comparative genomics,50898
credit creation,50898
Apophthegmata Patrum,50898
Exophiala,50898
Sleep disorders,50898
EIES,27636
Array comparative genomic hybridization,50898
Dynamical systems,50898
Social network,50898
"N,N-dimethylbenzylamine",50898
Kantian,50898
sodium lauryl sulfate,50898
Thrombolytic therapy,50898
Suicide methods,50898
Chemokine receptor,50898
Sleep deprivation,50898
monopsonistic,50898
North Pacific Ocean,50898
biodiesel,50898
Volcanic ash,50898
tooth extraction,50898
Psychosexual development,50898
Michelangelo phenomenon,50898
data dissemination,50898
FANCM,50898
liars,50898
retrograde amnesia,50898
Holoprosencephaly,50898
tacrine,50898
Wieringen,50898
Mucocutaneous,50898
Zolpidem,50898
F420,50898
heterogeneous network,50898
BILD,50898
clobenpropit,50898
Body integrity identity disorder,50898
pollinosis,50898
Y2O3,50898
transportation planning,50898
closed class,50898
13-cis retinoic acid,50898
drug-seeking,50898
homoleptic,50898
Bond strength,50898
carbonate mound,50898
Maroni,50898
Biomedical science,50898
supraoptic (SON),50898
Small copper,50898
external auditory canal,50898
Capillary refill,50898
Late Pliocene,50898
Pyridoxine-dependent epilepsy,50898
functionalistic,50898
Emergency Medical Services (EMS),50898
Shame,50898
symplectic,50898
Tree planting,50898
optical trapping,50898
amobarbital,50898
Carbohydrate,50898
positional good,50898
ductus venosus,50898
organizational behavior,50898
Khmer Rouge,50898
Islamist,50898
Fear-potentiated startle,50898
cyclic graph,50898
fermion,50898
Low-level laser therapy,50898
dynamical system,50898
Oswald,50898
electron holography,50898
Food chain,50898
milk banks,50898
Valkenburg,50898
Neuromyelitis optica,50898
ingroup favoritism,50898
Magnetization transfer,50898
cavernous sinus,50898
James Janeway,50898
motor unit number estimation,50898
cortical remapping,50898
negative selection,50898
Fetal Akinesia Deformation Sequence,50898
Cerebral atrophy,50898
mopane,50898
synchronous motor,50898
Low blood pressure,50898
traded internationally,50898
Pathogen,50898
Shimura,50898
electroencephalographic,50898
Carl Schmitt,50898
operad,50898
complex geometry,50898
beta-adrenergic receptor antagonist,50898
Cryptococcal meningitis,50898
computational linguistics,50898
hove,50898
party switching,50898
evolutionary game theory,50898
Fc region,50898
Proliferation Security Initiative,50898
Manual therapy,50898
remineralisation,50898
loop space,50898
Celsior,50898
biotinylation,50898
Raman spectroscopic,50898
push-pull,50898
honeycomb,50898
quadrature,50898
Charge ordering,50898
backtracking,50898
direct agglutination test,50898
Almorexant,50898
homeopathy,50898
Object detection,50898
social welfare function,50898
capability approach,50898
Tigray,50898
social identity theory,50898
N-methyl-d-aspartate,50898
humerus fracture,50898
social disintegration,50898
Quantum chemical calculations,50898
Chronic obstructive pulmonary disease,50898
Wolfgang Amadeus Mozart,50898
International Criminal Court (icc),50898
polycyclic,50898
Transaminase,50898
peripartum,50898
Hypoxic ventilatory response,50898
Aircraft noise,50898
fatalism,50898
11q13,50898
Von Hippel-Lindau disease,50898
periodization,50898
Knowledge engineering,50898
Agglutination,50898
methanogenic,50898
security dilemma,50898
virtual water,50898
comparative advantage,50898
confirmation bias,50898
liver lobule,50898
racially segregated,50898
Aristotelian philosophy,50898
vitamin D receptors,50898
P-selectin glycoprotein ligand-1,50898
high-speed rail,50898
Diels-Alder reaction,50898
NK1,50898
Drug discovery,50898
Dystonia,50898
hand transplants,50898
Earth System Science Partnership,50898
Condorcet paradox,50898
peritoneal fluid,50898
Ivermectin,50898
Chemical Engineering,50898
Atlantidae,50898
stress relaxation,50898
Gibson,50898
Catechol-O-methyltransferase,50898
microvascular disease,50898
Heroin,50898
Yukawa coupling,50898
Mercuric chloride,50898
Frontotemporal lobar degeneration,50898
pancreaticoduodenectomy,50898
Dutch Famine,50898
helicoid,50898
pregnancy-induced hypertension,50898
carnosinase,50898
ancient DNA,50898
liberal democratic,50898
Ankersmit,50898
Ribose 5-phosphate,50898
Poso,50898
Perovskite,50898
physical optics,50898
collective investment,50898
International Union Against Cancer,50898
Herndon,50898
Knowledge management,50898
Sylvester,50898
Szabolcs,50898
pattern formation,50898
Manila clam,50898
Pulmonary atresia,50898
mupirocin,50898
Pneumocystis carinii pneumonia,50898
facial nerve,50898
Poison,50898
IMSA,50898
affinity constant,50898
Cartilage,50898
Cannabis sativa,50898
Dutch standards,50898
behavior management,50898
microsporidia,50898
CX3CL1,50898
EUs,50898
slid,50898
Uremic pruritus,50898
RoboCup,50898
ordinary differential equation,50898
Palmitoylation,50898
Doublecortin,50898
Obstructive sleep apnea (OSA),50898
Glutathione transferases,50898
embodied agent,50898
community-based management,50898
Yis,50898
oil spill,50898
"3,4-Diaminopyridine",50898
plane wave,50898
Non-cooperative game,50898
term rewriting,50898
Sternberg,50898
A92,50898
dice,50898
sound recording,50898
Bone remodeling,50898
metacarpophalangeal joint,50898
microclimate,50898
body size scaling,50898
traffic jam,50898
truancy,50898
iteroparous,50898
bilinear,50898
A 67,50898
Innate lymphoid cells,50898
Adsorption,50898
seismic anisotropy,50898
Lipoatrophy,50898
PSR B1259-63,50898
allegory,50898
Sinai Peninsula,50898
Magnetostriction,50898
class field theory,50898
IRIS,50898
Wolbachia pipientis,50898
Health promotion,50898
Breech presentation,50898
paramagnet,50898
Gabapentin,50898
diabetic nephropathy,50898
Water resource management,50898
The Atlantic,50898
centrally planned economy,50898
flower heads,50898
ethidium bromide,50898
ideal free,50898
critically endangered,50898
reactive sputtering,50898
heritage tourism,50898
Montessori,50898
glycosidase,50898
quasi-experiment,50898
UNFCCC,50898
JAMA,50898
The DAWN,50898
multihop,50898
bibliometrics,50898
euro crisis,50898
Pictet-Spengler,50898
Meerfelder Maar,50898
database theory,50898
Emperor,50898
ethynyl,50898
Solid oxide fuel cells,50898
apologize,50898
Dialectical Behavior Therapy,50898
Junin virus,50898
Choline,50898
outer hair cells,50898
J.P.,50898
Gastroesophageal reflux disease,50898
English studies,50898
invasion percolation,50898
Intermetallic,50898
ATF2,50898
laser diffraction,50898
Finger agnosia,50898
SO(3),50898
"Kingston, Jamaica",50898
Evora,50898
Avot,50898
randomized response,27923
Bortezomib,50898
Intrauterine growth restriction,50898
Open Grid Forum,50898
EURIBOR,50898
Clusterin,50898
Abdominal wall,50898
common marmoset,50898
fear clinic,50898
virtual disk,50898
Fortum,50898
basophilic,50898
enantiopure,50898
fornix,50898
Lemaitre,50898
smart cities,50898
Gaia,50898
specular reflection,50898
African Independent Churches,50898
Chinese cabbage,50898
Merapi,50898
Rectum,50898
Stern Review,50898
Chemcatcher,50898
Strictly proper,50898
hedonist,50898
Remote control,50898
pendulum,50898
heavy-fermion superconductor,50898
Second Boer War,50898
nuclear matrix,50898
RN,50898
CERT,50898
VSM,50898
classical ballet,50898
The Skeptical Environmentalist,50898
securities,50898
Maimonides,50898
strain gauge,50898
aniridia,50898
scarification,50898
Particle number,50898
tandem mass spectrometer,50898
sensor network,50898
terrorism,50898
debt relief,50898
symmetry group,50898
zenith,50898
Two Micron All Sky Survey,50898
Varroa,50898
Central Nervous System (CNS),50898
Trans fatty acids,50898
Type D personality,50898
congenital diaphragmatic hernia,50898
phototropism,50898
Glucose-6-phosphate dehydrogenase,50898
Granovetter,50898
Catholic Church,50898
facial feedback hypothesis,50898
enteric nervous system,50898
Chapel Hill,50898
Genetic susceptibility,50898
Garner,50898
cellulose acetate,50898
Autosomal recessive,50898
Remington,50898
unit circle,50898
plant disease resistance,50898
single market,30812
Eaton,50898
Jefferson,50898
hydrotreating,50898
Sex reassignment surgery,50898
Peritoneal dialysis,50898
postmenopause,50898
background process,50898
Enterprise Architecture,50898
FTP,50898
Suicidal ideation,50898
forensic psychiatrist,50898
body symmetry,50898
intentionality,50898
Glomerulonephritis,50898
Umwelt,50898
matriptase,50898
Familial hemophagocytic lymphohistiocytosis,50898
Leptospirosis,50898
Thymidine,50898
IAMS,50898
Pharmacovigilance,50898
gapping,50898
Neck pain,50898
Lie Algebras,50898
Chitosan,50898
Pollination,50898
RW,50898
niobium,50898
environmental politics,50898
Chile,50898
flavin mononucleotide,50898
Respiratory syncytial virus,50898
haemoglobin A,50898
Methylglyoxal,50898
Mother-to-child transmission,50898
Elutriation,50898
Tedisamil,50898
Cafestol,50898
Inflammatory diseases,50898
bargaining problem,28031
802.11,50898
HDPs,50898
wave number,50898
The emotions,50898
Cardiopulmonary bypass,50898
ultraviolet light,50898
molecular electronics,50898
emotional intelligence,50898
Chronic Obstructive Pulmonary Disease (COPD),50898
CD34+ progenitor cells,50898
myelomeningocele,50898
pre-implantation genetic diagnosis,50898
multigrid,50898
component-based,50898
Arctic climate,50898
epoetin alfa,50898
prospect theory,50898
electronic voting,50898
Energy conservation,50898
Grip strength,50898
planned behaviour,50898
Human brain,50898
Dynkin,50898
X-ray magnetic circular dichroism,50898
tipifarnib,50898
pediatric oncology,50898
role conflict,50898
brown shrimp,50898
Monte Carlo (MC),50898
simple sum,50898
hERG,50898
disintegrin,50898
Cardiac resynchronization therapy,50898
Lynch Syndrome,50898
Egmond,50898
Pneumocystis carinii,50898
IMMS,50898
physical attractiveness,50898
Proteorhodopsin,50898
Moral disengagement,50898
feedforward networks,50898
Global Financial Crisis,50898
Capsule endoscopy,50898
Redout,50898
kinetic resolution,50898
working family,50898
fenoprofen,50898
N-acylethanolamines,50898
Vascular endothelial growth factor receptor,50898
Local anaesthesia,50898
Photoisomerization,50898
butane,50898
point-contact spectroscopy,50898
Lipoarabinomannan,50898
suicidology,50898
nocturnal enuresis,50898
hemagglutination,50898
glycine transporter 1,50898
Land cover,50898
Proteus mirabilis,50898
Black-tailed Godwit,50898
J.I,50898
thrombotic disease,50898
human microbiota,50898
rubber band ligation,50898
State space,50898
Genital herpes,50898
Melanocyte,50898
Abdominal aortic aneurysm,50898
continental shelf,50898
organic food,50898
growth cones,50898
CD26,50898
nonlinear elasticity,50898
beta5,50898
Evett,50898
adolescent sexuality,50898
behavioral disorder,50898
Felis,50898
single-molecule magnet,50898
emergent design,50898
Erythrocyte Sedimentation Rate,50898
discursive psychology,50898
Authigenic,50898
Sexual minority,50898
Familial hemiplegic migraine,50898
filamentous fungi,50898
hypercalcaemia,50898
cadastre,50898
ocean color,50898
Self-affirmation,50898
HadCM3,50898
digit ratio,50898
flowstone,50898
adoption subsidies,50898
impact parameter,50898
lipopeptide,50898
lamellar phase,50898
turbot,50898
Paraaortic lymph node,50898
Sedoheptulose,50898
Aryl,50898
prophylactic cranial irradiation,50898
forensic science,50898
pathogen-host interactions,50898
Darwinian,50898
soil horizons,50898
Verbal fluency,50898
Irinotecan,50898
plastic waste,50898
PSP,50898
Lave,50898
Methylene blue,50898
convergent plate boundaries,50898
Stop codon,50898
bismuth subcitrate,50898
pheromones,50898
congenital adrenal hyperplasia,50898
glucokinase,50898
dacryoadenitis,50898
disordered eating,50898
particle system,50898
biomonitor,50898
Ontology Alignment,50898
jawbreakers,50898
ratchet,50898
Machine Translation,50898
cryptogams,50898
cardiolipin,50898
essential nutrient,50898
Malignant mesothelioma,50898
Human cytomegalovirus,50898
Ambient Intelligence,50898
Cairns,50898
Mastitis,50898
Engen,50898
Derek Bell,50898
induction programme,50898
Restenosis,50898
dissipative particle dynamics,50898
Diabetes care,50898
logit,50898
Dianthus caryophyllus,50898
Markov process,50898
Dyspepsia,50898
high resolution electron energy loss spectroscopy,50898
Krein,50898
requirements engineering,50898
epistemology,50898
Software design,50898
Delta 9,50898
computer monitor,50898
BeppoSAX,50898
Middle ear,50898
Calluna vulgaris,50898
Myers-Briggs Type Indicator,50898
Galen,50898
The switch,50898
CF3I,50898
battery electric,50898
workfare,50898
recombinant immunoblot assay,50898
visual arts,50898
mediastinitis,50898
sexual violence,50898
Arbuscular mycorrhizal fungi (AMF),50898
Neonicotinoid,50898
post-modern,50898
Surinam,50898
cloud forest,50898
gene mapping,50898
cerebral circulation,50898
Sleep disturbance,50898
n-butane,50898
nogo,50898
heavy fermion superconductor,50898
football),50898
Muller-Lyer illusion,50898
vagus nerve stimulation,50898
diffusion-limited,50898
Epidural anesthesia,50898
glycinergic,50898
Gastrointestinal endoscopy,50898
Endothelial progenitor cell,50898
protractor,50898
Kerguelen Plateau,50898
N-oxides,50898
Progress testing,50898
ATG16L1,50898
clinical symptom,50898
Current literature,50898
drag,50898
QL,50898
Heterosis,50898
stochastic search,50898
duopoly,50898
mammary gland,50898
Ruthenium,50898
alms,50898
KamLAND,50898
Subitizing,50898
KPSS,50898
Tosca,50898
community ecology,50898
complex posttraumatic stress disorder,50898
NP-complete,50898
somesthetic,50898
mentalization,50898
evolutionary algorithms,50898
desymmetrization,50898
astrometric,50898
quinolones,50898
subclavian artery,50898
white spot,50898
wound dehiscence,50898
Atlantic Meridional Overturning Circulation,50898
Cerro Prieto,50898
circadian variations,50898
General Assembly,50898
West Germany,50898
Blom,50898
Preeclampsia,50898
Makran,50898
Verticillium,50898
avian influenza,50898
Picosecond,50898
credit card,50898
chromodomain,50898
statistical model,50898
Allergen,50898
Whole body vibration,50898
grace note,50898
Cancer stem cells,50898
Marine isotope stage,50898
Gossypol,50898
water metering,50898
Ulrik Huber,50898
Dry skin,50898
copayment,50898
auditory verbal hallucinations,50898
collective intelligence,50898
soil biodiversity,50898
Fe2(CO)9,50898
vehicle routing problem,50898
MP3,50898
ectotherms,50898
instrumental case,50898
Common coding theory,50898
intercultural competence,50898
Velden,50898
Gamma-butyrolactone,50898
Aldridge,50898
Pru,50898
connectance,50898
Sporormiella,50898
macroeconomics,50898
Polychlorinated biphenyls,50898
Purdue pegboard test,50898
Haemonchus contortus,50898
Cellular traffic,50898
Paramagnetic,50898
Dihydropyrimidine dehydrogenase,50898
point group,50898
Cyanide,50898
two-sided market,50898
Premature ovarian failure,50898
national review,50898
equational theory,50898
P6,50898
ante mortem,50898
Hyperbolic discounting,50898
Hyperhomocysteinemia,50898
Cocaine dependence,50898
Nurek,50898
methyl-coenzyme M reductase,50898
Central Asian orogenic belt,50898
MAD,50898
Political violence,50898
Nucleoside analogues,50898
Fourteen men,50898
BGA,50898
Autonomic computing,50898
Vestibular schwannoma,50898
Galactokinase deficiency,50898
Quality Factor,50898
ice cream,28317
balanced scorecard,50898
antiemetic,50898
dysprosium,50898
relative disparity,50898
Bologna process,50898
Biofuels,50898
gastrointestinal endoscopy,50898
HPC,50898
artists' model,50898
Amblyopia,50898
gibberellins,50898
Elaboration Likelihood Model,50898
Chemometrics,50898
solar energy,50898
GRAPE,50898
solid-phase microextraction,50898
frog,50898
insulin analogue,50898
priapism,50898
Epilepsy surgery,50898
Co-creation,50898
natural number,50898
infaunal,50898
Patient safety,50898
isocortex,50898
NoPs,50898
Sahel,50898
Thomas Elsaesser,30927
social learning,50898
clinical practice guideline,50898
meconium ileus,50898
Epithelioid sarcoma,50898
deep flexor,50898
business semantics management,50898
tigecycline,50898
immunoglobulin superfamily,50898
Xylene,50898
Inbreeding depression,50898
alcohol septal ablation,50898
Presupposition,50898
isotopic labelling,50898
Lantus,50898
bone morphogenetic protein,50898
Area studies,50898
chlorpyrifos,50898
Rotator cuff,50898
adult respiratory distress syndrome,50898
Latin,50898
moderated mediation,50898
agression,50898
overruled,50898
boundary condition,50898
Pneumoperitoneum,50898
Betaine,50898
North Carolina,50898
pyruvate dehydrogenase complex,50898
rocuronium,50898
discrete symmetry,50898
Granada,50898
logic programming,50898
Avian influenza,50898
unicellular organism,50898
intra-cluster medium,50898
Direct-to-consumer advertising,50898
Surface energy,50898
Seoane,50898
Salmonella typhimurium,50898
IEA,50898
anharmonicity,50898
ethanolamine,50898
Proteoglycan,50898
structural analogue,50898
gluten intolerance,50898
hysteroscopy,50898
5-azacytidine,50898
variance-covariance matrix,50898
audiogenic,50898
energy harvesting,50898
tangent vector,50898
PAX6,50898
signa,50898
U8,50898
Ifremer,50898
The tradition,50898
spin label,50898
African Cinema,50898
leukotrienes,50898
sertraline,50898
Pangea,50898
hidden curriculum,50898
21-deoxycortisol,50898
lesion repair,50898
interphalangeal,50898
dCK,50898
5-HTP,50898
EMF,50898
molecular model,50898
gzmA,50898
aspheric,50898
L-2-hydroxyglutarate,50898
waste incineration,50898
hybrid protein,50898
atmospheric-pressure chemical ionization,50898
GLO1,50898
gRNAs,50898
differential scanning calorimetry,50898
Morlet wavelet,50898
Gyral,50898
breast augmentation,50898
polarizability,50898
phosphodiesterase 5 inhibitor,50898
HSV1,50898
Motivate,50898
Cassiope,50898
GD 165,50898
logarithmic function,50898
E-O,50898
hE4,50898
Interleukin-8,50898
LRRK2,50898
5-HT3A,50898
HOMO-LUMO,50898
nonhumans,50898
quinoxaline,50898
patch clamp,50898
A11,50898
B2C,50898
plantaris muscle,50898
intuitionism,50898
offal,50898
L. plantarum,50898
aprepitant,50898
sidescan sonar,50898
quantum chromodynamics,50898
syngas,50898
concentration ratio,50898
CDH23,50898
SIX3,50898
thixotropic,50898
SPRED2,50898
histomorphologic,50898
SCN7A,50898
Minhe,50898
LEMS,50898
clusterin,50898
infraorder,50898
signalling pathway,50898
disproportionation,50898
bond percolation,50898
SSQ,50898
oral history,50898
bacterial toxin,50898
anconeus,50898
cellulose,50898
adrenodoxin,50898
ductus arteriosus,50898
BABs,50898
ars moriendi,50898
ergonomist,50898
VP6,50898
Time point,50898
salty liquorice,50898
CLEC4A,50898
endospore,50898
No agreement,50898
array factor,50898
base hydrolysis,50898
monolysocardiolipin,50898
ACTA1,50898
deoxyhemoglobin,50898
nanotextured surface,50898
calcipotriol,50898
haemolytic anemia,50898
Frenchay,50898
anomalous scattering,50898
Rydberg constant,50898
DHEA sulfate,50898
SSs,50898
lox,50898
Sphagnum,50898
WLAN,50898
National Cancer Institute (NCI),50898
utopia,50898
SCLC,50898
Pulmonary angiography,50898
iomazenil,50898
Admira,50898
HDAC5,50898
aminophylline,50898
SB-271046,50898
waakye,50898
TOL,50898
peer-review,50898
Alpers' disease,50898
film dosimetry,50898
abstract algebra,50898
APTT,50898
UFA,50898
glucosylceramide synthase,50898
sox6,50898
phosphole,50898
stereology,50898
enterolactone,50898
HTK,50898
large deviations,50898
corneal stroma,50898
Desmacellidae,50898
saralasin,50898
Crimea,50898
organic chemistry,50898
Solubilization,50898
Andromeda,50898
lead poisoning,50898
chironomids,50898
sacroiliitis,50898
esfenvalerate,50898
BrU,50898
Macoma balthica,50898
AMC,50898
2-AG,50898
Wambon,50898
DIPT,50898
category learning,50898
chromosome 8,50898
Complicated grief,50898
hydropathy,50898
Triage,50898
vascular plant,50898
Nauka/Interperiodica,50898
Betula,50898
mediastinoscopy,50898
socialism,50898
ventricular dyssynchrony,50898
Ilex,50898
chorioretinal,50898
Elevated alkaline phosphatase,50898
epg,50898
Spontaneous conception,50898
FTPs,50898
water crisis,50898
Common Toxicity Criteria,50898
waveplate,50898
Kuopio,50898
F(ab')2,50898
Venous blood,50898
40Ar/39Ar dating,50898
18 hours,50898
Mozambique Channel,50898
Outliers,50898
purulence,50898
hypoxemic,50898
PCAF,50898
LHX4,50898
pregabalin,50898
Markov kernel,50898
selective recruitment,50898
liminal,50898
colonialism,50898
Tromso,50898
biovar,50898
granisetron,50898
atlantid,50898
bug,50898
metastability,50898
TOP3A,50898
meninges,50898
rankl,50898
tobit,50898
real-time kinematic,50898
parallel processing,50898
Bochnia,50898
quartet,50898
zJ,50898
Brij,50898
Knacker,50898
Yiddish,50898
axiomatizability,50898
bandpass filter,50898
lipotoxicity,50898
axSpA,50898
ERC,50898
hyperdrive,50898
epidural anesthesia,50898
laser-induced fluorescence,50898
CSI,50898
GKRP,50898
social defeat,50898
Gamma Knife,50898
flow-mediated dilation,50898
isotopic shift,50898
mitochondrial membrane,50898
Tissue engineering,50898
sound level,50898
smectic,50898
EGAS,50898
7th Framework Programme,50898
SCUBA,50898
SRTM,50898
Framingham risk score,50898
weed,50898
family symmetries,50898
perfluorohexane,50898
ZDF,50898
laxative,50898
Respiratory sinus arrhythmia,50898
hoard,50898
dR-5,50898
Phos,50898
carnosine,50898
dicarbonate,50898
VHL,50898
genetic fingerprint,50898
mito,50898
Micromass,50898
Columbia River,50898
MCF7,50898
sulci,50898
microhabitat,50898
LORCA,50898
Samuel Ibn Tibbon,50898
activated sludge,50898
thesaurus,50898
BNP,50898
data likelihood,50898
semi-diurnal,50898
drone,50898
soup,50898
color model,50898
water cluster,50898
cross-sectional models,50898
Croatian,50898
magnetite,50898
diphenhydramine,50898
reverse transcription polymerase chain reaction,50898
data transformation,50898
Trishal,50898
Corneal neovascularization,50898
PVH,50898
trans fatty acids,50898
Q54,50898
diverticula,50898
saponification,50898
metamorphic rock,50898
managerialism,50898
advanced maternal age,50898
Late Paleocene,50898
carbon pricing,50898
Candeias,50898
acridine,50898
hyperinsulinemia,50898
ADM-Aeolus,50898
Porphyromonas,50898
Cohen-Macaulay,50898
Budapest,50898
castrated,50898
configuration management,50898
C. jejuni,50898
Avena sativa,50898
Climate Refugees,50898
error function,50898
area studies,50898
cryoablation,50898
IgA1 protease,50898
Quantity calculus,50898
C-5,50898
GMR,50898
Schramm-Loewner evolution,50898
RFLP,50898
tilapia,50898
nymphs,50898
YMRS,50898
Pyrolysis gas chromatography mass spectrometry,50898
Washington University,50898
accretionary wedge,50898
eustasy,50898
hypertonia,50898
Smart,50898
invertible function,50898
Sarcopenia,50898
web service,50898
ovarian cysts,50898
respiratory infection,50898
retinol,50898
Kurjan,50898
psychoanalytic,50898
pterygoid,50898
spatial design,50898
correspondence analysis,50898
plasmid vector,50898
small steps,50898
nuclear pore,50898
Hemisotidae,50898
sonogram,50898
sexually transmitted disease,50898
EBNA-1,50898
Piebald,50898
gossypol,50898
diorite,50898
ALDH,50898
GAUSS,50898
rugby (union),50898
cediranib,50898
CD47,50898
ovarian cyst,50898
tedisamil,50898
apraxia,50898
Himba,50898
genu,50898
impetigo,50898
Tolman length,50898
ECB,50898
teratogenesis,50898
retinylidene,50898
H. contortus,50898
M6,50898
Apionidae,50898
Chewing gum,50898
tropisetron,50898
pentosan polysulfate,50898
Dentin,50898
functional dissociation,50898
Hemocyanin,50898
disaccharide,50898
ferredoxin,50898
rotigotine,50898
Sirius,50898
mass matrix,50898
genioplasty,50898
organomagnesium,50898
N13,50898
Orhan Pamuk,50898
OMG,50898
creative capital,50898
thromboembolism,50898
European Medicines Agency (EMA),50898
pressure-controlled,50898
SV2A,50898
IgY,50898
Vrancea Zone,50898
nutrient cycle,50898
S. haematobium,50898
AcomA,50898
demethylated,50898
Web science,50898
Vela,50898
solid oxide fuel cells,50898
rough set,50898
intrinsic activity,50898
hyperconnected,50898
TNM,50898
enteroscopy,50898
CJD,50898
inclusion body myositis,50898
robusta,50898
phototropin,50898
Neurospora crassa,50898
IIS,50898
e-folding,50898
NbTi,50898
Error control,50898
GPU,50898
HgCl2,50898
DITI,50898
electric potential,50898
surface brightness,50898
TFIIH,50898
Urea,50898
ice-rafting,50898
mycotoxins,50898
shared care,50898
masseter muscle,50898
CWU,50898
thymic stromal lymphopoietin,50898
CD32,50898
CNR,50898
MinD,50898
Gini coefficient,50898
trichothecene,50898
phosphorelay,50898
Goldstone,50898
merozoite,50898
bootstrap model,50898
ERCP,50898
radiation pneumonitis,50898
mitochondrial ribosome,50898
Health Utilities Index,50898
PTH 1,50898
bunch grass,50898
Lynx lynx,50898
Beta diversity,50898
acrylic resin,50898
IPTA,50898
chemotherapy regimen,50898
ferrocene,50898
enzyme linked immunosorbent assay,50898
pentosidine,50898
fibrillogenesis,50898
MADD,50898
BST,50898
triple bond,50898
rickettsiae,50898
Pan troglodytes,50898
diacylglycerol lipase,50898
Suspicion,50898
decarboxylation,50898
tert-butyl,50898
humani generis,50898
mucinous cystic neoplasm,50898
corn oil,50898
EMI,50898
sugammadex,50898
N-methyl-D-aspartate receptor,50898
K giants,50898
alkylamine,50898
Vidaza,50898
streptolysin O,50898
Equisetum,50898
managed care,50898
bryophytes,50898
lateral pterygoid muscle,50898
Immunogenicity,50898
The terminal,50898
CNTNAP2,50898
EET,50898
septicaemia,50898
AAU,50898
CMML,50898
Porcellio scaber,50898
nonamyloid,50898
RTP,50898
motoneuron,50898
MMP-8,50898
central venous pressure,50898
National Cholesterol Education Program,50898
forsythia,50898
smokeless tobacco,50898
plant rooting,50898
factors VII,50898
chimeric protein,50898
Conductive hearing loss,50898
tenuis,50898
muscimol,50898
isobaric,50898
physiognomy,50898
9S,50898
AICAR,50898
ATF,50898
rheumatic disorders,50898
abducens,50898
baclofen,50898
rove,50898
hydroxylamine,50898
Kukla,50898
iminosugar,50898
peripheral nerve disorders,50898
arteriosclerotic,50898
complete blood count,50898
wavevector,50898
BRE,50898
Triton X-100,50898
beta-glucan,50898
Sequence alignment,50898
bisoprolol,50898
dentary,50898
Acacia,50898
MT1-MMP,50898
DAP,50898
Glaxo,50898
land degradation,50898
asl,50898
A17,50898
spin-labeled,50898
CCl5,50898
HCH,50898
McGill pain questionnaire,50898
gamma-glutamyltransferase,50898
orbital ordering,50898
tendon reflex,50898
squalene,50898
Al-P,50898
diamagnetism,50898
meniscus,50898
diacetate,50898
EWS,50898
Plasma parameters,50898
convection zone,50898
Point prevalence,50898
tethered particle motion,50898
Inhibitory control,50898
COL2A1,50898
L band,50898
isomorphous,50898
Anaesthesiology,50898
Lipid profile,50898
Conjugate gradient,50898
fumonisins,50898
mu-opioid receptor,50898
cellulose triacetate,50898
frontolimbic,50898
pangasius,50898
Ridley,50898
angiopoietin-1,50898
solid-state NMR,50898
intergenic region,50898
The skull,50898
ibuprofen,50898
ramus,50898
arachnoidal,50898
modified Rankin scale,50898
surface area-to-volume ratio,50898
Lidar,50898
ionophore,50898
2degrees,50898
dATP,50898
Tetraplegia,50898
local extinction,50898
neotectonics,50898
gp160,50898
Dacian,50898
Annex I,50898
autozygous,50898
Con A,50898
intermembrane space,50898
Insulin glargine,50898
EarthCARE,50898
Presyncope,50898
EMU,50898
dramatis personae,50898
Demark,50898
N32,50898
Mental retardation,50898
OO,50898
incineration,50898
Nephrocalcinosis,50898
muscle nAChRs,50898
continent-continent collision,50898
RBPJ,50898
paleothermometer,50898
ODQ,50898
Jahn-Teller,50898
Renoir,50898
beta coefficient,50898
polarization scrambling,50898
FEC,50898
bubble columns,50898
ultraviolet cutoff,50898
ELPE,50898
Jesuits,50898
alprazolam,50898
frequentist,50898
inverse ratio ventilation,50898
matrix effects,50898
pertuzumab,50898
Kakanui,50898
allometric growth,50898
Apion,50898
EU27,50898
DUP,50898
Kimberley,50898
membrane rupture,50898
Andersson,50898
Val158Met,50898
MSLT,50898
methyl-CpG-binding domain,50898
HOT,50898
exponentially distributed,50898
Cotesia,50898
octanol,50898
psoas,50898
New Hampshire,50898
Early Iron Age,50898
3T3 cells,50898
micro-RNA,50898
Vorlage,50898
Jamari,50898
Marine Isotope Stage,50898
erythroleukemia,50898
haematology,50898
POW,50898
glass fibre,50898
sensor node,50898
obstetrician,50898
keratitis,50898
consumer surplus,50898
angulus,50898
DMP,50898
diffractometry,50898
cholera toxin,50898
cagA,50898
TRECVID,50898
National Electrical Manufacturers Association (NEMA),50898
G+C,50898
Platyrrhini,50898
Xerostomia,50898
glomerular basement membrane,50898
CNRS,50898
CRTAP,50898
gastro-oesophageal reflux,50898
17-hydroxyprogesterone,50898
induced molting,50898
X-linked intellectual disability,50898
dander,50898
spinal reflex,50898
nucleoside analog,50898
p-phenylenediamine,50898
HREM,50898
dihydroimidazol-2-ylidene,50898
corticotropin releasing hormone,50898
Renal insufficiency,50898
MoAB,50898
Screener,50898
MTU,50898
early modern era,50898
phenanthridine,50898
magnetohydrodynamic,50898
sox9,50898
A. nidulans,50898
Empetrum,50898
ERK1/2 pathway,50898
pseudogenes,50898
kimberlitic,50898
wavelet transform,50898
adventitial,50898
carotene,50898
necitumumab,50898
FBA,50898
dielectric function,50898
NOEC,50898
bump,50898
MUM,50898
Sedimentology,50898
triamcinolone,50898
microbe,50898
patch clamp electrophysiology,50898
Nauka,50898
alpha-interferon,50898
suberin,50898
spray drying,50898
germ tube,50898
FIB,50898
registered nurse,50898
holoprotein,50898
polarizer,50898
Taqman,50898
antithrombin III,50898
pyrethroid,50898
SN 1987A,50898
CXCR7,50898
99 times,50898
sterol regulatory element-binding protein,50898
spiral ganglion,50898
Secchi disk transparency,50898
adenylyl cyclase,50898
grape,50898
Brevicipitinae,50898
TPM2,50898
AV node,50898
Atorvastatin,50898
competitive analysis,50898
FISI,50898
CRO,50898
hemizygosity,50898
otorhinolaryngology,50898
microcytosis,50898
homeopathic,50898
CPAP,50898
refrigeration,50898
SBC,50898
essentialism,50898
keratin 4,50898
clotrimazole,50898
cranial nerves,50898
digastric,50898
Nuremberg,50898
overdiagnosed,50898
nebulin,50898
Resting Energy Expenditure,50898
DOR,50898
sunflower,50898
threshold dose,50898
Trujillo,50898
ECU,50898
heteropod,50898
Renal cancer,50898
Tryptophan hydroxylase,50898
rectal bleeding,50898
polyurethane,50898
ruminant,50898
subgenus,50898
phospholipase D,50898
Transvaginal ultrasonography,50898
Tetrahydrocannabinolic acid,50898
transactivates,50898
commutator,50898
Gompertz,50898
figshare,50898
Varimax rotation,50898
irbesartan,50898
wet chemistry,50898
train-of-four,50898
COPASI,50898
bone pain,50898
total internal reflection,50898
NPM1,50898
HOCM,50898
ITVs,50898
Cd68,50898
TETA,50898
stellar regions,50898
orthophosphate,50898
pseudotumor cerebri,50898
FE1,50898
tissue expansion,50898
cubane,50898
neutrinoless double-beta decay,50898
NAE,50898
MAPK7,50898
kami,50898
Bethe lattice,50898
nanoparticle tracking analysis,50898
hydrocortisone 17-butyrate,50898
VCE,50898
modulo,50898
sympathetic trunk,50898
racemization,50898
girdling,50898
DSST,50898
DPPIV,50898
capitulum,50898
DDAc,50898
Immunosuppression,50898
paraaortic,50898
Fucose,50898
global positioning system,50898
SLM,50898
beta-hydroxybutyrate,50898
DSM-V,50898
MLN,50898
Psychiatric assessment,50898
polyploid,50898
resveratrol,50898
Mymensingh,50898
squamous cell lung cancer,50898
subserosa,50898
ivermectin,50898
Hartree-Fock method,50898
overburden,50898
contingency table,50898
rowing cycle,50898
image compression,50898
antibody deficiency,50898
FST,50898
forma specialis,50898
SAQ,50898
critical theory,50898
monacensis,50898
goniometry,50898
cellular automaton,50898
Hyperandrogenism,50898
ecological study,50898
LOC,50898
dendrobatid,50898
polder,50898
distributed representation,50898
AOA,50898
Spacer,50898
deflagration,50898
middle ear infections,50898
FSHR,50898
Myrsine,50898
nun,50898
isolated system,50898
virilizing,50898
dopamine receptor D2,50898
Cosmology,50898
polysulfide,50898
Molecular Systems Biology,50898
TFC,50898
metabotropic,50898
Her2 positive,50898
ASW,50898
Cholecystectomy,50898
domperidone,50898
S. mitis,50898
Carinodens,50898
chromosome 19,50898
octreotide,50898
Age-adjusted,50898
Praesepe,50898
a604,50898
Braak,50898
B. recurrentis,50898
user modeling,50898
RPI,50898
VSV,50898
nozzle,50898
flip-flop,50898
epoxomicin,50898
imaging spectrometer,50898
collagen II,50898
NU2,50898
candidiasis,50898
density operator,50898
cladogram,50898
complex PTSD,50898
EDAR,50898
Cox Proportional Hazards Model,50898
Knoxville,50898
hypercholesterolaemic,50898
D-sorbitol,50898
Cytotoxicity,50898
alimentary canal,50898
Sinj,50898
CREB,50898
distal phalanx,50898
FGF19,50898
beta-binomial distribution,50898
latent variable model,50898
asbestos,50898
leaf scar,50898
ability score,50898
to3,50898
diffuse supernova neutrino background,50898
Gallium,50898
M18,50898
LOV2,50898
lenograstim,50898
Il-8,50898
SREBP,50898
Costa Rica,50898
vomerine teeth,50898
Anthicidae,50898
galactokinase deficiency,50898
muscle tone,50898
blood alcohol concentration,50898
circumflex,50898
GCPS,50898
oar,50898
sinus rhythm,50898
potassium channels,50898
xenodiagnosis,50898
megalin,50898
teetotalers,50898
bicyclic compound,50898
UCD,50898
antiphospholipid antibody,50898
partition coefficient,50898
polybutadiene,50898
Tr1,50898
Wigner-Eckart theorem,50898
mamillary bodies,50898
AMA,50898
commutative algebra,50898
VEGFR-3,50898
patulin,50898
seismic methods,50898
4-methylhistamine,50898
aminoalkylindole,50898
recycled glass,50898
DN,50898
rpoB,50898
Berau,50898
LBW,50898
monensin,50898
southern records,50898
cross-linker,50898
expendable,50898
conic,50898
Red wine,50898
teat,50898
Zernike,50898
diazepam,50898
CITB,50898
regression dilution,50898
geologic record,50898
LANA,50898
nutrient upwelling,50898
current good manufacturing practice,50898
B-20,50898
pirenzepine,50898
laboratory safety,50898
echelle spectrograph,50898
tricine,50898
L-glutamate,50898
hyperinflation,50898
North Pacific Gyre,50898
woodlice,50898
Respiratory rate,50898
marginal tax rate,50898
Pontides,50898
pyroxene,50898
Irminger Current,50898
cantilever beam,50898
mosM,50898
tunicamycin,50898
Electrolyte,50898
layer 3,50898
DNA copy number profiles,50898
anesthesiology,50898
Orange,50898
cutin,50898
Hebrew,50898
keratin 13,50898
trigeminal nerve,50898
BMP4,50898
glutathione hydrolase,50898
glassy carbon,50898
PRKG1,50898
purulent,50898
Dey,50898
biomimetic materials,50898
U0126,50898
musculocutaneous,50898
freeze-dried,50898
IL-7,50898
otolith,50898
G3P,50898
software application,50898
gastric distension,50898
sex chromosome,50898
umbilical veins,50898
water mass,50898
genetic epidemiology,50898
plaque assay,50898
Pathfinder,50898
dieldrin,50898
passive immunization,50898
centre-right,50898
Child-Pugh,50898
polar projection,50898
cholesteryl esters,50898
granulomatous inflammation,50898
dialysis adequacy,50898
ovine,50898
Ibn Ishaq,50898
PLSCR1,50898
Sertraline,50898
absence seizures,50898
disease-modifying antirheumatic drug,50898
non-locality,50898
spectrophotometer,50898
roughly speaking,50898
alcohol intoxication,50898
Faraday rotator,50898
bioterrorists,50898
infectious mononucleosis,50898
adapter protein,50898
CI+,50898
mesial temporal sclerosis,50898
BIS,50898
patellar tendinopathy,50898
Dutch Antilles,50898
stochastic dominance,50898
Evapotranspiration,50898
authigenic,50898
type 2 DM,50898
plaque psoriasis,50898
Glycosylated hemoglobin,50898
homoclinic bifurcation,50898
Jansenists,50898
fluidized bed,50898
ensembl,50898
random access,50898
NIV,50898
PSV,50898
interaction point,50898
Imidacloprid,50898
Smad2,50898
The retrieval,50898
INHBA,50898
system III,50898
trypanosome,50898
denaturing gradient gel electrophoresis,50898
C3A,50898
brevican,50898
HES,50898
Southern Africa,50898
methanol synthesis,50898
coco peat,50898
Salmeterol,50898
UvrD,50898
spectral reflectance,50898
variable range hopping,50898
Reforestation,50898
tectonic subsidence,50898
ideal framework,50898
Coloured,50898
Stochastic volatility,50898
nucleolin,50898
compressive strength,50898
marginal utility,50898
Stomatal conductance,50898
electrical cardioversion,50898
LolA,50898
CEN,50898
cumulative probability,50898
Nebido,50898
vertebra,50898
bimatoprost,50898
acetylenedicarboxylate,50898
Sirajganj,50898
gold nanorods,50898
supercluster,50898
ARIA-E,50898
beta2,50898
Ranoidea,50898
coregistration,50898
CNS disorders,50898
soil acidification,50898
relative deprivation,50898
lintuzumab,50898
minettes,50898
epidote,50898
PON1,50898
bicuculline,50898
fractional factorial design,50898
CVP,50898
Perineal,50898
XRCC3,50898
SD 13,50898
loose coupling,50898
moisturizer,50898
pertactin,50898
pharmaceutical care,50898
glomerulonephritis,50898
VAMP7,50898
THCA,50898
Complex formation,50898
beta-thalassemia,50898
endostatin,50898
coronal sulcus,50898
SDF,50898
The MEG,50898
WMD,50898
thiram,50898
CYP450,50898
double-balloon enteroscopy,50898
MIDP,50898
primordium,50898
perinatal death,50898
econazole,50898
Guayaquil,50898
funduscopy,50898
P Cygni profile,50898
Trisomy 21,50898
McGill,50898
aleurone,50898
Attentional control,50898
Panthera,50898
indirect tax,50898
Fmr1,50898
linking number,50898
complex modulus,50898
Northern Cape,50898
omnivory,50898
dynactin,50898
HPTLC,50898
tectonic burial,50898
X2,50898
Turkish Republic,50898
ZBTB16,50898
continuous performance task,50898
enone,50898
B7-1,50898
Paleocene,50898
FLNC,50898
hyperosmolality,50898
causal model,50898
Elan,50898
HGDH,50898
Helium,50898
KIT,50898
University Hospital Bonn,50898
FABP,50898
alder,50898
Mupirocin,50898
Covariance,50898
Movicol,50898
fixed-parameter tractable,50898
CD46,50898
science education,50898
carbanion,50898
Thalidomide,50898
SVV,50898
blood lipids,50898
IL-3,50898
ferrous,50898
LFA-3,50898
elastic theory,50898
Chlamydia muridarum,50898
top predator,50898
radiation intensity,50898
spatial summation,50898
housefly,50898
RFE,50898
frameshifts,50898
PEST,50898
Graham,50898
The candidate,50898
bronchodilator,50898
2-blades,50898
hyposmia,50898
marimastat,50898
perineal tear,50898
electron-capture,50898
nonstoichiometry,50898
orthonormal,50898
sphagnum,50898
solar neutrino,50898
selama,50898
BEACOPP,50898
COMMD1,50898
lynx,50898
retroperitoneal space,50898
fMLP,50898
ultrasonogram,50898
mycelia,50898
Marxism,50898
neutrino background,50898
anti-cardiolipin antibodies,50898
Renal blood flow,50898
vitreous,50898
aquarium,50898
Nonidet P-40,50898
Andreaea,50898
Molecular & Cellular Proteomics,50898
Hirsutism,50898
Lactobacillus plantarum,50898
counterexample,50898
Doukkala,50898
Cell wall,50898
colchicine,50898
skinfold thickness,50898
endocrinology,50898
triquetrum,50898
immunoprecipitates,50898
systolic hypertension,50898
level 23,50898
Frzb,50898
neck stiffness,50898
pituitary gland,50898
Mi-1,50898
jeos,50898
Overeating,50898
intravenous fluid administration,50898
insufflation,50898
epoprostenol,50898
neutral-pH,50898
synechiae,50898
secondary sexual characteristics,50898
selegiline,50898
pyridoxine-dependent epilepsy,50898
4-androstenedione,50898
candidemia,50898
Permian,50898
disulfiram,50898
inclusive education,50898
joint replacement surgeries,50898
charge ordering,50898
purine nucleoside phosphorylase,50898
atorvastatin,50898
125I,50898
N-RAS,50898
Dual energy X-ray absorptiometry,50898
profilin,50898
Strain gauge,50898
K-Ras,50898
digastric muscle,50898
subfossil,50898
doctor patient,50898
voluntary wheel running,50898
heroin dependence,50898
geophysicists,50898
PRNP,50898
Hudson Bay,50898
Neuropathology,50898
adaptor protein,50898
electroweak theory,50898
immunogenetics,50898
American Fertility Society,50898
IRF8,50898
tropical Andes,50898
diaphysis,50898
angiostatin,50898
Mycalidae,50898
parental investment,50898
anterior cruciate ligament,50898
neotropical,50898
lollipop,50898
butenolide,50898
PRAS40,50898
Photobleaching,50898
Acanthuridae,50898
dydrogesterone,50898
otoacoustic emissions,50898
tourniquet,50898
interleukin 4,50898
Prenatal diagnosis,50898
paronychia,50898
12S rRNA,50898
blind test,50898
thalamotomy,50898
homeopathic medicine,50898
polysorbate,50898
CLOCK,50898
SLC22A5,50898
somatosensory cortex,50898
cyclosporine,50898
luteinizing hormone/choriogonadotropin receptor,50898
myositis,50898
synanamorph,50898
Milky Way Galaxy,50898
Pravastatin,50898
operationalism,50898
cafestol,50898
cAF,50898
Tycho,50898
Cerro Tololo Inter-American Observatory,50898
myenteric plexus,50898
Multiple organ failure,50898
growth cone,50898
sleep inertia,50898
HIP14,50898
Rad18,50898
spin-lattice relaxation time,50898
narcosis,50898
HLA-DRA,50898
IRF5,50898
lithofacies,50898
suppressor gene,50898
fluid intelligence,50898
thermal diffusion,50898
Intrinsic curvature,50898
Vaccinium,50898
paleochannel,50898
Leptailurus,50898
anticholinergic,50898
AP site,50898
msx2,50898
beauvericin,50898
excitatory postsynaptic potential,50898
Clue,50898
evolocumab,50898
platelet transfusion,50898
middle ear,50898
"Beaumont Hospital, Dublin",50898
hypoxia-inducible factor-1,50898
marijuana,50898
East European Platform,50898
TNNT1,50898
polymerize,50898
Wistar rat,50898
corneocyte,50898
coenzyme Q,50898
bromothymol blue,50898
Aquatic Toxicology,50898
polaron,50898
orexin,50898
renal tubular acidosis,50898
phyllaries,50898
elongation factor,50898
JBS,50898
NEFA,50898
Brazilian Amazon,50898
65 nm,50898
molecular modelling,50898
ITS1,50898
stress fiber,50898
clivus,50898
perikarya,50898
plesiomorphic,50898
persulfate,50898
Dir,50898
muscular dystrophies,50898
floc,50898
desmoplasia,50898
price level,50898
ingroup bias,50898
GHRH,50898
Arthroleptidae,50898
Schwann cell,50898
TAMA,50898
intellectually disabled,50898
angular resolution,50898
flocculation,50898
Radboud University Nijmegen Medical Centre,50898
fundic,50898
MBD2,50898
apastron,50898
Trace element,50898
Z100,50898
Ossessione,50898
MMM,50898
Complex PTSD,50898
procaine,50898
Entamoeba,50898
SERPINA1,50898
tooth abscess,50898
benzalkonium chloride,50898
Cys-loop receptors,50898
SMC5,50898
creatine transporter defect,50898
chronotropic,50898
Probability,50898
Brca1,50898
monosaccharide,50898
intussusception,50898
Iron Age,50898
Heinrich event,50898
double vision,50898
HYPR,50898
U937,50898
shear rate,50898
FIGLA,50898
Eastern Africa,50898
creative class,50898
HL-60,50898
Parliament,50898
non-small-cell lung carcinoma,50898
ABA,50898
intrauterine pressure catheter,50898
final assessment,50898
deoxyribose,50898
infusion therapy,50898
Job satisfaction,50898
Phospholipase C,50898
renal system,50898
CDMS,50898
Gefitinib,50898
cone biopsy,50898
keratoplasty,50898
Bronchoalveolar lavage,50898
GlyT1,50898
deltoids,50898
hypomania,50898
Aqaba,50898
bZIP,50898
bulan,50898
tripelennamine,50898
partial thromboplastin time,50898
Southern ocean,50898
Cladosporium cladosporioides,50898
isoelectric focusing,50898
interleukin 7,50898
supervised methods,50898
decision points,50898
palatine velum,50898
arthritis care,50898
Paris climate agreement,50898
apomorphic,50898
xenobiotic metabolism,50898
supratherapeutic doses,50898
Nambu,50898
reciprocal inhibition,50898
COBRA group,50898
Add Health,50898
Ali Ibn Ridwan,50898
cancer chemotherapy,50898
enquire,50898
Luminescence,50898
hormonal therapy,50898
chemoprevention,50898
Oligonucleotide,50898
coprophagous,50898
potential barrier,50898
CVID,50898
fox,50898
HER2/neu,50898
Jawbreakers,50898
PDE5,50898
Counterfactuals,50898
psychogenic,50898
gyrification,50898
glycine reuptake inhibitor,50898
Larix,50898
H-reflex,50898
lymphotoxin-alpha,50898
iris,50898
ultrasound transducer,50898
dissociation energies,50898
Alprazolam,50898
pulmonary veins,50898
hemosiderosis,50898
Cocaine,50898
simple explanation,50898
logarithmic scale,50898
rast,50898
transmittance,50898
conjugated linoleic acid,50898
presenilin 1,50898
anti-gliadin antibodies,50898
ocean circulation,50898
Descending aorta,50898
phleomycin,50898
enhanced cooperation,50898
dot 5,50898
paromomycin,50898
Col2a1,50898
CCL24,50898
carbapenem,50898
GM3,50898
polar bear,50898
escarpment,50898
bariatric,50898
lard,50898
Hyperoliidae,50898
SQUID,50898
T. crassiceps,50898
cuticle,50898
paludal,50898
group selection,50898
Acute myocardial infarction,50898
generalized parton distributions,50898
Cell growth,50898
Vita,50898
CHD2,50898
risk function,50898
myogenin,50898
avoided crossing,50898
Irminger Sea,50898
HER3,50898
pseudoarthrosis,50898
mitotically,50898
differentially methylated regions,50898
central venous,50898
alcoholism,50898
nipple discharge,50898
alpha-bungarotoxin,50898
avascular necrosis,50898
INHBB,50898
Commd1,50898
pentafluorophenyl esters,50898
Baxter Healthcare,50898
highly evolved,50898
DYS,50898
B. garinii,50898
surrogate data,50898
International League Against Epilepsy,50898
paraneoplastic phenomenon,50898
Ulex,50898
auscultation,50898
Inflation,50898
masticatory system,50898
IMA,50898
vestibular disease,50898
sputtering,50898
aposematic,50898
sulfadoxine-pyrimethamine,50898
Downhill,50898
ideal body weight,50898
AURKA,50898
Veillonellaceae,50898
GXM,50898
Hearing loss,50898
glucuronide,50898
CD54,50898
magainin,50898
astemizole,50898
diner,50898
alpha-helical,50898
Synergism,50898
Bosentan,50898
Banda,50898
alpha-amylase,50898
Molt-4,50898
iron metabolism,50898
introns,50898
SAB,50898
Assisted ventilation,50898
D. melanogaster,50898
speech pathology,50898
acetoin,50898
cut-point,50898
tetanic contraction,50898
SCAP,50898
IAC,50898
acid-base balance,50898
aragonitic,50898
sarcolemma,50898
oomycetes,50898
humification,50898
malonate,50898
ventral anterior,50898
osteopetrotic,50898
schism,50898
hypocapnia,50898
regional anaesthetic,50898
ZIC2,50898
immunodeficient,50898
Snx5,50898
DIO,50898
VCAM,50898
seismic velocity,50898
biogenic amine,50898
Hamilton Anxiety Rating Scale,50898
piecemeal,50898
ZEB1,50898
connected components,50898
PPIB,50898
Gemmatimonadetes,50898
countercurrent multiplication,50898
MIS 5,50898
Calamagrostis lapponica,50898
American Heart Association,50898
systemic autoimmune disease,50898
epithelioid,50898
sulphite,50898
hyperpolarizing,50898
Environmental Protection Agency,50898
double helix,50898
micropaleontology,50898
Oxytelinae,50898
CSRT,50898
serval,50898
levetiracetam,50898
Adenomyosis,50898
megaduodenum,50898
sequential analysis,50898
CMD group,50898
mixed layer depth,50898
Histamine,50898
GRASP,50898
speleologists,50898
knockout (KO) mice,50898
phytohormones,50898
Antibiotic prophylaxis,50898
ITS2,50898
Computerized tomography,50898
rmsd,50898
terminal care,50898
macrocytosis,50898
LFA-1,50898
positive water balance,50898
VXS,50898
dermatomyositis,50898
cystitis,50898
Methylation-specific PCR,50898
Hill equation,50898
phosphatidylinositol bisphosphate,50898
Infrared spectroscopy,50898
hallucinogen,50898
special measures,50898
inequity aversion,50898
Intralipid,50898
streptavidin,50898
HIV-1 subtype C,50898
H2CO,50898
PDGFRB,50898
Glo1,50898
switch-reference,50898
exponentiation,50898
CD90,50898
turbidite,50898
stereoisomer,50898
cysticercosis,50898
signaling protein,50898
ultradian,50898
IL12RB1,50898
Yukawa,50898
IBZM,50898
orthologue,50898
cooperativeness,50898
Carman,50898
tetrahydrofolate,50898
glycosylated hemoglobin,50898
primary reinforcement,50898
SOFA score,50898
forb,50898
codon usage,50898
modern records,50898
ICP-MS,50898
Vel,50898
adjacency matrix,50898
Dunn,50898
GzmB,50898
Donbas,50898
hypertonic saline,50898
WEE1,50898
OPCML,50898
frozen embryo transfer,50898
ESAT-6,50898
suture zones,50898
allotype,50898
TaqMan,50898
canonical form,50898
peptaibols,50898
Interleukin 2,50898
bronchoconstriction,50898
distilled water,50898
X-ray photoelectron spectroscopy,50898
bumblebee,50898
Ductus venosus,50898
IRF2,50898
solvophobic,50898
Hakala,50898
birthing position,50898
galactose metabolism,50898
hemophagocytosis,50898
ergosterol,50898
Perl,50898
SID,50898
Mantella,50898
clinical global impression,50898
zolpidem,50898
The reef,50898
SNAP-25,50898
IFM-GEOMAR,50898
Dutch Catholic Church,50898
APL,50898
intrinsic pathway,50898
metoclopramide,50898
tempol,50898
European Innovation Scoreboard,50898
red algae,50898
inflammatory breast cancer,50898
Ferritin,50898
Rab4,50898
astigmatism,50898
MEF2,50898
epidural anaesthesia,50898
LNB,50898
kerogen,50898
nonhomologous end-joining,50898
target analysis,50898
cyclooxygenase 2,50898
fosmid,50898
parahippocampal gyrus,50898
Lake Bosumtwi,50898
jitter,50898
excise duty,50898
palmitoyl-CoA,50898
periodontium,50898
inclusion bodies,50898
guanosine,50898
squint,50898
Breast-fed,50898
British Isles,50898
electron gas,50898
interactome,50898
kaolin clay,50898
BOMP,50898
chorionic villi,50898
MTBS,50898
CD70,50898
shortest path,50898
parathyroid hormone-related peptide,50898
anthropomorphic phantom,50898
mineralized tissue,50898
oak forest,50898
serum amyloid P component,50898
Crotalaria,50898
primiparous,50898
interleukin-3,50898
otoacoustic emission,50898
process control,50898
empirical relationship,50898
tenesmus,50898
The complete Review,50898
Leopardus,50898
species pool,50898
sketchpad,50898
mepyramine,50898
11-deoxycorticosterone,50898
decision support system,50898
pectoral girdle,50898
Javanese,50898
source control,50898
carboxyhemoglobin,50898
area density,50898
Massey,50898
mid-upper arm circumference,50898
Cancer Research UK,50898
palmitoylation,50898
beta Pictoris,50898
quantitative computed tomography,50898
Full factorial,50898
dibutyl phthalate,50898
GCE,50898
anterior segment,50898
GJA1,50898
modelling perspective,50898
foraminifer,50898
Ranidae,50898
n-alkanes,50898
virilization,50898
muscarinic antagonists,50898
flagellate,50898
HDP,50898
Laguna,50898
Vroom,50898
monastrol,50898
Iatrogenic,50898
intubate,50898
reduced fraction,50898
resting metabolic rate,50898
E8B,50898
impedance plethysmography,50898
metalloprotease,50898
MAN,50898
NO activity,50898
bmi-1,50898
mushroom,50898
plastic recycling,50898
amastigotes,50898
colorimetric assay,50898
Color difference,50898
endocrinopathies,50898
Hadoop,50898
AM-38,50898
molecular chaperones,50898
opportunistic infection,50898
agenesis,50898
Lysosomes,50898
Plagioclase,50898
TP1,50898
WMFT,50898
Deerfield,50898
N15,50898
vocal fold,50898
Staphylininae,50898
PTPRC,50898
HK1,50898
American Vacuum Society,50898
acidogenic bacteria,50898
IL23R,50898
normal hydrogen electrode,50898
Radiation Therapy Oncology Group,50898
International Diabetes Federation,50898
phenotypic screening,50898
cell respiration,50898
myofibrils,50898
clonus,50898
fluid retention,50898
posterior probability distribution,50898
psychological resilience,50898
lymphangitis,50898
rawa,50898
IL-1beta,50898
sphingosine-1-phosphate,50898
FBD,50898
EHL,50898
iohexol,50898
PIK3R1,50898
Argentine hemorrhagic fever,50898
CURB-65,50898
Hazard ratio,50898
field potential,50898
dipropyl,50898
pterygoid fovea,50898
postmortem interval,50898
PMNS matrix,50898
PRDM1,50898
dystroglycan,50898
caregiver stress,50898
Pure tone audiometry,50898
Luke,50898
renal vein,50898
la 1,50898
Bcl-XL,50898
Carla,50898
Tycho-2,50898
taxable income,50898
J Clin Psychiatry,50898
ultrasensitivity,50898
Topographer,50898
sterically hindered,50898
FGFR4,50898
almorexant,50898
TCT,50898
tendon transfer,50898
multiresistant,50898
lipooligosaccharide,50898
maternal death,50898
nintedanib,50898
CTV,50898
cyclic electron flow,50898
IFAT,50898
HESX1,50898
pyridoxal phosphate,50898
Upwelling,50898
outer space,50898
Monophyly,50898
immunoelectrophoresis,50898
T2-SPACE,50898
Mantellinae,50898
loss tangent,50898
reductive elimination,50898
L gauge,50898
vaccine schedule,50898
ondansetron,50898
Conversion rate,50898
Moraceae,50898
biogeographic,50898
HLA class II,50898
fasudil,50898
tropical air,50898
EEA1,50898
cytokeratin,50898
paediatrician,50898
Plantago,50898
GPx,50898
species complex,50898
HEP G2,50898
2-aminopyridine,50898
silent mutation,50898
serpentinised,50898
blubber,50898
2009 (C),50898
auxins,50898
cryosphere,50898
kinin,50898
UBE2L3,50898
pillow,50898
hemostatic agent,50898
semantic dementia,50898
Freudenthal,50898
dorzolamide,50898
zinc deficiency,50898
Tumor progression,50898
Drug interaction,50898
GluR1,50898
propeller,50898
carbon dioxide sink,50898
Disinhibition,50898
Rottlerin,50898
central composite design,50898
Orkney,50898
temsirolimus,50898
robust estimation,50898
candesartan,50898
Alabama,50898
epistaxis,50898
nisoldipine,50898
collateralization,50898
barbiturate,50898
mucin 5B,50898
JAK2,50898
assay sensitivity,50898
MBD1,50898
indirect immunofluorescence,50898
multi-core,50898
continental philosophy,50898
anti-tissue transglutaminase,50898
electronegativity,50898
rechallenge,50898
elute,50898
Tehran,50898
somata,50898
White butterfly,50898
epiphytic,50898
hypotonicity,50898
UASB,50898
Haploinsufficiency,50898
SCARB1,50898
chromatofocusing,50898
LCM,50898
amniocentesis,50898
glucosyl residues,50898
FHIT,50898
Moreau,50898
cycloalkyl,50898
PTPN22,50898
U-87,50898
self-fulfilling prophecy,50898
p38 MAPK pathway,50898
Cryptomonas,50898
sevelamer,50898
Saskatchewan,50898
5' untranslated region,50898
solvent drag,50898
apoB,50898
Polycythemia,50898
DOPAC,50898
EYA4,50898
uremic pruritus,50898
ATRA,50898
lonafarnib,50898
chlamydiae,50898
galactose-1-phosphate uridyltransferase,50898
back-arc,50898
Area 47,50898
scissile bond,50898
viral pneumonia,50898
end-Triassic,50898
beta-hCG,50898
cystadenoma,50898
chromosome 18,50898
Particle Data Group,50898
proteinogenic,50898
Medical Anthropology Quarterly,50898
ethylene oxide,50898
boundstone,50898
S1P1,50898
UPSAL,50898
TLA,50898
GTP,50898
thermocycling,50898
Semantic web,50898
papilloma,50898
lead compound,50898
LTC4,50898
MIRIAM,50898
mandibular prognathism,50898
reverse causation,50898
weak interaction,50898
CCL12,50898
PER,50898
glycinamide ribonucleotide formyltransferase,50898
Aprepitant,50898
laparoscope,50898
afterhyperpolarization,50898
window period,50898
5-1-1,50898
structural equation modelling,50898
abductor muscles,50898
cuprous oxide,50898
beta-adrenergic agonist,50898
Divergence,50898
deoxycytidine kinase,50898
orbital gyri,50898
kinetic scheme,50898
Hartree-Fock theory,50898
3-ketoacyl-CoA thiolase,50898
SOX5,50898
hospital readmission,50898
saccharide,50898
isothermal titration calorimetry,50898
paediatrics,50898
Nausea,50898
MLH1,50898
FGFR1,50898
Vavilov,50898
monticellite,50898
ARPC2,50898
empyema,50898
steel factor,50898
BCL,50898
pterins,50898
aglycon,50898
clonic,50898
estuarine mud,50898
P/E,50898
amide I,50898
euploid,50898
delta opioid receptor,50898
L-edge,50898
Atlanta,50898
Cryptosporidium,50898
behavioural disorder,50898
COL1A1,50898
calphostin C,50898
dyspraxia,50898
Saudi,50898
Homogyne alpina,50898
alpha-glucosidase,50898
jawbreaker,50898
Staphylinidae,50898
end-diastolic dimension,50898
alpha-2-macroglobulin,50898
coprecipitated,50898
C. glabrata,50898
Homeopathy,50898
trigonelline,50898
isosmotic,50898
graminoid,50898
Trichinosis,50898
electron transfer chain,50898
Teknaf,50898
Sentinel-3,50898
stratigraphical,50898
Neurophysiological Biomarker Toolbox,50898
morphosyntactic,50898
female condom,50898
homotopic,50898
bisulfite sequencing,50898
Diopters,50898
Fab fragment,50898
binary weapon,50898
maculopathy,50898
quantifier,50898
Toxin,50898
arsenopyrite,50898
angiotensin-II,50898
S-300,50898
cyclooxygenase 1,50898
PSGL-1,50898
The messenger,50898
cowberry,50898
Haloperidol,50898
Caithness,50898
power density,50898
biofouling,50898
WY,50898
ectomycorrhizal,50898
BCL3,50898
lifetime fitness,50898
All trials,50898
oblique muscle,50898
Pieris rapae,50898
leachates,50898
lactoperoxidase,50898
pouchitis,50898
urate oxidase,50898
NTNG1,50898
pylorus,50898
Quantitative PCR,50898
chl,50898
chiral resolution,50898
normoxic,50898
radiological imaging,50898
progressive tax,50898
cordocentesis,50898
self-injurious behavior,50898
primary energy,50898
Amylase,50898
naloxone,50898
CH3CHO,50898
surface gravity,50898
SmaI,50898
type species,50898
immunoperoxidase staining,50898
DAG kinase,50898
Sorafenib,50898
lymphoproliferative disease,50898
EPB41L3,50898
reticulum,50898
Mantidactylus,50898
BPTI,50898
unigenes,50898
ball-milling,50898
Calci,50898
cap-and-trade,50898
polyisoprene,50898
Na+/Ca2+ exchanger,50898
Confocal laser scanning microscopy,50898
Cardioprotection,50898
statistical parametric mapping,50898
LHX3,50898
virtual machine,50898
GATA-3,50898
androgen-dependent,50898
fibula,50898
Urticaceae,50898
lunar magma ocean,50898
DJ1,50898
Cediranib,50898
Weight loss,50898
OLINDA,50898
oct-1,50898
mother-to-child transmission,50898
palmate,50898
A constant sea,50898
overdrafting,50898
HSP-70,50898
immunoscreening,50898
extra time,50898
hemithyroidectomy,50898
biological pathway,50898
remaster,50898
CCKA,50898
geminate,50898
adenosine deaminase,50898
cycloheximide,50898
platinum group,50898
mesentery,50898
IAR,50898
hyperphosphataemia,50898
explained variation,50898
Summary Tables,50898
infl,50898
fibro,50898
gill,50898
4DCT,50898
Kami,50898
night blindness,50898
peralkaline,50898
equilibrative nucleoside transporter,50898
proguanil,50898
menstrual irregularities,50898
porencephaly,50898
sandfly,50898
polyene,50898
reflux oesophagitis,50898
suprapubic cystostomy,50898
Sphagnum fallax,50898
7/11,50898
JNJ 7777120,50898
DAB2IP,50898
Rhacophorinae,50898
nephelinite,50898
S1P3,50898
chaperone protein,50898
abducens nerve,50898
IL2RA,50898
cheese,50898
cytokinins,50898
Quintessence,50898
FANCG,50898
Substance P,50898
Temporal lobe,50898
trigger point,50898
harbor seal,50898
JAK1,50898
phosphoenolpyruvate carboxykinase,50898
Marsili,50898
Avenella flexuosa,50898
Isoelectric focusing,50898
seafloor spreading,50898
fenoterol,50898
CH3CH2OH,50898
Callot,50898
water contact,50898
Northern blotting,50898
Necitumumab,50898
Angiopoietin,50898
C. psittaci,50898
ECM1,50898
multifractal,50898
fused-silica,50898
hypoxic-ischemic encephalopathy,50898
filter binding assay,50898
dextromethorphan,50898
circulatory arrest,50898
proliferating cell nuclear antigen,50898
dogfish,50898
orthogonal regression,50898
Thursius,50898
hemoglobin A1c,50898
2CC,50898
New England,50898
potential difference,50898
PPAR-gamma,50898
Antihypertensive,50898
hyperconnectivity,50898
PDC,50898
passage number,50898
CTT,50898
tPS,50898
forearc,50898
Subsidence,50898
EPSP,50898
Rho GTPase family,50898
semantic indexing,50898
allery,50898
inhibin A,50898
Nejat,50898
HRAS,50898
APOE4,50898
salmon,50898
Ground-penetrating radar,50898
Echogenicity,50898
enteroclysis,50898
GPSM2,50898
Mozart,50898
TPI,50898
enstatite,50898
TRAF6,50898
15 L,50898
Discovery Medicine,50898
HOXA9,50898
nonterminal,50898
Mycobacterium scrofulaceum,50898
hypergonadotropic hypogonadism,50898
comC,50898
AAR,50898
SNARE,50898
cystathionine beta synthase,50898
dentifrices,50898
phenyl group,50898
red marrow,50898
eye examination,50898
vector boson,50898
proteinase K,50898
hujan,50898
pegasys,50898
Time-dependent density functional theory,50898
corneal neovascularization,50898
NHD,50898
spinel,50898
chelerythrine,50898
Neuropsychological assessment,50898
East-European Platform,50898
parametric equation,50898
TAZ,50898
C. krusei,50898
nucleoside transporter,50898
Statistics South Africa,50898
Mycale,50898
lymphangioma,50898
UPSC,50898
lattice theory,50898
TR3,50898
OPRD1,50898
biliverdin,50898
Encephalitozoon intestinalis,50898
cryptococcosis,50898
aquaporin 4,50898
fiscal policy,50898
asphericity,50898
strawberry yogurt,50898
Fosmid,50898
reduced gas,50898
barotrauma,50898
Homology modeling,50898
IL21,50898
LEPRE1,50898
OAS1,50898
meiosis II,50898
acetylcholine esterase,50898
peroneal muscles,50898
spinous process,50898
urinary diversion,50898
thrombotic microangiopathy,50898
alpha agonist,50898
data clustering,50898
advanced glycation endproduct,50898
X-ray absorption fine structure,50898
sonomicrometry,50898
capsule endoscopy,50898
IIM,50898
ADAM,50898
neofunctionalization,50898
Density functional theory,50898
O-methylated,50898
central core disease,50898
NDRG4,50898
Clara cell,50898
Doxycycline,50898
USP9X,50898
Swiss-Prot,50898
dihydrobiopterin,50898
stereoscopic,50898
Ripple,50898
butanol,50898
upper motor neuron syndrome,50898
beta-sheet,50898
phengite,50898
fields point,50898
heat bath,50898
AST/ALT ratio,50898
back-arc extension,50898
resonance stabilization,50898
Quil,50898
pulse repetition frequency,50898
Lactic acidosis,50898
CCND3,50898
Deconvolution,50898
ADCY5,50898
TGIF1,50898
glycogen synthase kinase,50898
oblateness,50898
Dupin cyclide,50898
DAPI,50898
EUK,50898
The barrier,50898
AACM,50898
cerebellar cortex,50898
direct image,50898
pancreatic islets,50898
salmiak,50898
DNA vaccination,50898
Hillel ben Samuel,50898
Insulin Glargine,50898
malate,50898
dR-1,50898
bromocriptine,50898
violet,50898
epilepsia partialis continua,50898
coprecipitate,50898
Indo-Pacific,50898
flood forecasting,50898
CB2,50898
environmental microbiology,50898
CMI,50898
interplate,50898
CD8+,50898
C. parapsilosis,50898
Rab3A,50898
sodium nitrite,50898
Splanchnic,50898
Ataxia,50898
flounder,50898
relative risk reduction,50898
Combretaceae,50898
extrinsic pathway,50898
7.30,50898
suhu,50898
Apaf-1,50898
residual volume,50898
OAS2,50898
exocrine pancreatic insufficiency,50898
sexual conflict,50898
Brca2,50898
NIST,50898
RR Lyrae,50898
calixarene,50898
radio frequency,50898
ANAs,50898
ceramides,50898
SH2B3,50898
Forebrain,50898
TAF4B,50898
GnRH antagonist,50898
infrared signature,50898
endocrine disrupters,50898
crosshead,50898
DNA-binding domain,50898
lamellar bone,50898
ferrosilite,50898
SERCA,50898
trickling filter,50898
fibrogenesis,50898
Atazanavir,50898
anapaite,50898
topoisomerase II,50898
XENON,50898
calcium ATPase,50898
generalized MG,50898
V8,50898
COL11A1,50898
sucrase,50898
wrist flexors,50898
illusory contours,50898
SLC12A9,50898
VG,50898
nocturnal hemodialysis,50898
spherical aberration,50898
furfur,50898
ovotestis,50898
FMLP,50898
biliary duct,50898
experimental products,50898
housekeeping gene,50898
Polynomial,50898
bathochromic shift,50898
glucosamine,50898
Lower Cretaceous,50898
molecular beacon,50898
Faure,50898
Rhizocarpon,50898
PAPP-A,50898
lymphangiogenesis,50898
lentivirus,50898
emissions trading,50898
The crust,50898
myocardial disarray,50898
afebrile,50898
IL-17R,50898
Cordillera Oriental,50898
cyclopropyl,50898
The delivery,50898
psoralen,50898
methyl parathion,50898
N19,50898
moAb,50898
MSH6,50898
riboflavin,50898
spruce,50898
Cys-loop,50898
fistulectomy,50898
critical micelle concentration,50898
absence epilepsy,50898
retargeting,50898
synaptophysin,50898
sampling rate,50898
desertification,50898
NCIs,50898
carditis,50898
acini,50898
medial frontal gyrus,50898
G-proteins,50898
2cc,50898
Lotte Reiniger,50898
Association mapping,50898
scale invariance,50898
green-eyed,50898
hyperosmotic,50898
quantitative trait loci (QTL),50898
Afa,50898
Hague protocol,50898
locative,50898
film theory,50898
Hindu,50898
optical rotatory dispersion,50898
Franklin,50898
tetrahydrobiopterin,50898
megaherbivores,50898
real change,50898
Regulatory Focus theory,50898
wireless communication,50898
Floquet,50898
bioavailable,50898
morphometrical,50898
dairy cattle,50898
non-rivalry,30812
EQUATOR Network,50898
F-type star,50898
Kahneman,50898
Bright Star Catalogue,50898
emotional contagion,50898
isopod,50898
Morris Winchevsky,50898
data center network architectures,50898
Muslim social,50898
Kaapvaal Craton,50898
lithium diisopropylamide,50898
Fura-2,50898
FMN,50898
solid angle,50898
metatranscriptomics,50898
telecommunications network,50898
complete graph,50898
3D reconstruction,50898
maritime history,50898
Tannerella forsythia,50898
Anthropoidea,50898
Gorter,50898
Phanerozoic,50898
durophagous,50898
Microdata,50898
neighborhood search,50898
pointer,50898
EDP,50898
H5N1,50898
phosphorylase,50898
integrative psychotherapy,50898
mits,50898
type II diabetes mellitus,50898
Gadamer,50898
overture,50898
chemical kinetics,50898
hydrogenography,50898
EEM,50898
market economy,50898
Thrips tabaci,50898
dioecious,50898
microfibrillated,50898
padlock,50898
Rockall Trough,50898
MBTI,50898
periodic table,50898
The reputation,50898
Rademacher,50898
grandmother hypothesis,50898
natural law,50898
Chern,50898
field-flow fractionation,50898
corneal topography,50898
environmental science,50898
perch,50898
gingival tissue,50898
olfactory dysfunction,50898
Bakdash,50898
hermeneutical,50898
Space Interferometry Mission,50898
fast food restaurant,50898
swing shift,50898
Palomar Observatory,50898
AWG,50898
organisation studies,50898
cognitive restructuring,50898
G/G/1 queue,50898
homomorphism,50898
Novaya Zemlya,50898
Pareto efficient,50898
clavicle fracture,50898
modal verbs,50898
diathesis,50898
lattice Boltzmann method,50898
intrapreneurship,50898
land reform,50898
period performance,50898
Extracorporeal shockwave therapy,50898
This transformation,50898
subitizing,50898
textile printing,50898
thermogenesis,50898
sanofi-aventis,50898
hadronic interactions,50898
interrupted time series analysis,50898
Acute Lymphoblastic Leukemia,50898
PDD-NOS,50898
Peripatetic,50898
trachoma,50898
risk neutral,50898
anandamide,50898
essential amino acid,50898
justified true belief,50898
crystalline silicon,50898
gastrointestinal motility,50898
philosophical theories,50898
Gesture,50898
evanescent wave,50898
acanthodian,50898
Capgras delusion,50898
Missiology,50898
Broken Ridge,50898
Wada test,50898
losing ground,50898
photographic plate,50898
change blindness,50898
HYDE,50898
lymphadenitis,50898
Knowledge Management Research & Practice,50898
cornu ammonis,50898
sphingosine 1-phosphate,50898
transannular,50898
swim diaper,50898
residential treatment center,50898
media archaeology,30927
Uran,50898
Research Diagnostic Criteria,50898
Bali,50898
propane,50898
exopolysaccharides,50898
hyperbolic discounting,50898
self-fulfilling prophecies,50898
hypnotics,50898
debt restructuring,50898
online systems,50898
Fonsecaea,50898
Villars,50898
thyroid hormone receptor alpha,50898
physical quantity,50898
fencing,50898
automatic differentiation,50898
multicomponent reaction,50898
Kondo insulator,50898
Rachid Boudjedra,50898
laser scanning confocal microscopy,50898
aromatic compound,50898
Gujarat,50898
beta-cyclodextrin,50898
Gastrointestinal Endoscopy,50898
Post-Fordist,50898
mutualist,50898
familial combined hyperlipidemia,50898
poaching,50898
epistemic injustice,50898
General Social Survey,50898
evoked response,50898
transmissivity,50898
evolutionary computation,50898
Mobilities,50898
upper motor neuron,50898
Johnston,50898
chosen people,50898
British National Corpus,50898
realistic group conflict theory,50898
Computerized adaptive testing,50898
Creutzfeldt-Jakob disease,50898
climate proxies,50898
Noninvasive Ventilation,50898
Beek,50898
financial transaction,50898
impression management,50898
kahweol,50898
technocratic,50898
cognitive process,50898
Mechelen,50898
cafe-au-lait spots,50898
anthropocentric,50898
Spitz,50898
Hypercholesterolemia,50898
single-family dwellings,50898
PARK7,50898
Michelangelo,50898
territorial rights,50898
germinal centre,50898
hard infrastructure,50898
singular moduli,50898
CRISPR,50898
differentiated cell,50898
Ruditapes philippinarum,50898
Video game,50898
Strabismus,50898
health care-associated infections,50898
hemiparetic,50898
Polychlorinated dibenzo-p-dioxins,50898
photodecomposition,50898
ontogenesis,50898
big taboo,50898
disjointed,50898
text mining,50898
minority language,50898
SMIL,50898
Ehrenberg,50898
pyrrole,50898
Bose gas,50898
T-cell Lymphoma,50898
potato starch,50898
stress fracture,50898
martial arts,50898
ovarian cortex,50898
social insect,50898
multivariate probability distribution,50898
forensic psychiatry,50898
Lipophilicity,50898
National Policy,50898
dioecious plant,50898
role ambiguity,50898
flexibility mechanisms,50898
Cell cycle analysis,50898
Zijderveld,50898
VHI,50898
isotonicity,50898
New Economic Geography,50898
financial fragility,50898
ultrarelativistic,50898
Host defense peptides,50898
attitude polarization,50898
nomenklatura,50898
hospital-acquired pneumonia,50898
NAFE,50898
thf,50898
Epiphytic,50898
film transition,50898
self-replication,50898
Gus van Sant,50898
hub-and-spoke,50898
a.i.,50898
adaptive management,50898
social comparison,50898
performance-based contracting,50898
Spatiotemporal,50898
fluvial-lacustrine,50898
Compact city,50898
"5,10-methylenetetrahydrofolate",50898
Mashhad University,50898
New York University,50898
LINE-1,50898
ranoid,50898
Memmert,50898
Sokal,50898
Conjoint analysis,50898
psychological affect,50898
Osilinus,50898
foster care,50898
strike price,50898
mech,50898
Adria,50898
learning disabilities,50898
Herbig Ae/Be star,50898
Toxicokinetics,50898
characteristic function,50898
phosphogluconate dehydrogenase,50898
organization design,50898
Mauritania,50898
Wu,50898
uterotrophic,50898
acetoacetate,50898
health belief model,50898
SWOT,50898
liver function tests,50898
SWNT,50898
Sephadex,50898
green logistics,50898
tumourigenesis,50898
Surat,50898
IRA,50898
parasocial interaction,50898
CNC,50898
chelicerate,50898
Ancien Regime,50898
Higgs field,50898
Chromolaena,50898
Mali,50898
liver phosphorylase,50898
glucokinase regulatory protein,50898
Roman law,50898
desert fathers,50898
adverse drug reaction,50898
social disorganization,50898
deep learning,50898
Bosnia,50898
Markstrat,50898
tungsten,50898
Center Region,50898
Experiential knowledge,50898
arenaviridae,50898
consequence relation,50898
linac,50898
stutter,50898
Dendrobatidae,50898
Atherectomy,50898
O K,50898
Vespa,50898
Amsterdam density functional,50898
Process integration,50898
Eucalyptus globulus,50898
gender reassignment surgery,50898
sexual maturity,50898
onchocerciasis,50898
azulene,50898
incremental learning,50898
Value Added Tax (VAT),50898
protoplast,50898
sequence stratigraphy,50898
TPB,50898
stress urinary incontinence,50898
output gap,50898
palaeoclimate,50898
materialism,50898
oxandrolone,50898
BF3,50898
BDS,50898
plaice,50898
paternalism,50898
Granger,50898
Global Grid Forum,50898
Mya arenaria,50898
haploid,50898
exocyclic,50898
Malaga,50898
Vandermonde matrix,50898
cellular automata,50898
transcontinental railroad,50898
Closed form,50898
allergic conjunctivitis,50898
Model selection,50898
Death certificate,50898
Metalloprotease,50898
Anglo-Saxon,50898
Cryptococcus neoformans,50898
Amsterdam Metropolitan Area,50898
borreliosis,50898
Phospholipase D,50898
human parasitic disease,50898
Tumor suppressor gene,50898
Techne,50898
IPCC AR4,50898
archaeobotanical,50898
tailings,50898
dendritic spines,50898
Hanford,50898
experience sampling method,50898
neoclassical,50898
CCR9,50898
Hungarian,50898
limited liability,50898
Parent Management Training,50898
heavy-fermion,50898
fold-and-thrust belt,50898
self-organized criticality,50898
commensals,50898
drug holiday,50898
big science,50898
gammaglobulin,50898
dipeptidase,50898
chalk,50898
orthodontist,50898
autonomic computing,50898
drip irrigation,50898
Laurentide Ice Sheet,50898
Systems approach,50898
posterior vitreous detachment,50898
Minnesota,50898
point symmetry,50898
syntrophic,50898
Gram negative,50898
alpha-crystallins,50898
quinoline,50898
simultaneous hermaphroditic,50898
Body height,50898
prostatic cancer,50898
Party switching,50898
unionid,50898
runtime system,50898
binocular vision,50898
Bruno Bernard,50898
Callithrix jacchus,50898
Garajonay National Park,50898
sustainable agriculture,50898
Transvaal,50898
iliac crest,50898
Jaynes-Cummings model,50898
delayed-onset muscle soreness,50898
stratified epithelia,50898
weight function,50898
4-methylumbelliferone,50898
mentalistic,50898
talnetant,50898
cavity ring-down spectroscopy,50898
provo,50898
star cluster,50898
Torah,50898
tax depreciation,50898
depsipeptide,50898
airway management,50898
Poecilia,50898
Hordeum,50898
amyloid-related imaging abnormalities,50898
MFM,50898
AmI,50898
ventricular aneurysm,50898
cooperative movement,50898
Kasteleyn,50898
Shoah,50898
zirconium-89,50898
fixed dental prosthesis,50898
orexin receptor,50898
gallane,50898
constructive analysis,50898
McMaster University,50898
Acrylic resin,50898
Neonatology,50898
current account,50898
International Electrotechnical Commission (IEC),50898
Compton scattering,50898
Piketty,50898
hydrogenated silicon,50898
Khorasan,50898
polymicrogyria,50898
Single-photon emission Computed tomography (SPECT),50898
white patch,50898
general position,50898
Segu,50898
exponential families,50898
adrenal glands,50898
communicating vessels,50898
raised bog,50898
allelopathy,50898
network flow,50898
Sardinia,50898
statistical mechanics,50898
utility function,50898
Autism Spectrum Disorders,50898
machine translation,50898
George Peacock,50898
Swanton,50898
Crete,50898
black dots,50898
metal-insulator transition,50898
CNT,50898
symplectic reduction,50898
Jacques Mairesse,50898
interstitial site,50898
D-2-hydroxyglutaric aciduria,50898
NTP,50898
messianic,50898
microsporidiosis,50898
adverbial,50898
project management,50898
laboratory mice,50898
antiphospholipid antibodies,50898
Strange Situation,50898
constraint-induced movement therapy,50898
near-bed,50898
Diels-Alder,50898
Metabolic disorders,50898
material science,50898
pseudophakia,50898
quantum-dot,50898
double exponential,50898
molecular beam epitaxy,50898
Obsessive-compulsive disorder,50898
Encephalitozoon cuniculi,50898
public finance,50898
relational property,50898
Pr-9,50898
Generalized estimating equation,50898
genotype imputation,50898
bioaccumulative,50898
flow measurement,50898
Ibis,50898
surface wave,50898
basics,50898
morphometrics,50898
FIs,50898
autoimmune disorder,50898
Amhara,50898
ericoid,50898
Brassica rapa,50898
specifier,50898
parton distribution function,50898
Patrick,50898
CaF2,50898
Needleman-Wunsch algorithm,50898
dopamine agonist,50898
noise management,50898
Eurozone,50898
veganism,50898
rare-earth element,50898
Gouy phase,50898
stroke rate,50898
La5,50898
igneous rock,50898
External cephalic version,50898
small bowel obstruction,50898
whaling,50898
free-riding,50898
natural remanent magnetization,50898
native plant,50898
digital micromirror device,50898
deductive reasoning,50898
architectural geometry,50898
testees,50898
Casimir force,50898
agnosia,50898
preprint,50898
factor X,50898
table tennis,50898
thesauri,50898
cranial nerve,50898
investor-state dispute settlement,50898
congenital myopathy,50898
Bolzano,50898
aan,50898
combined pituitary hormone deficiency,50898
circadian rhythm disturbances,50898
Seychelles warbler,50898
Soest,50898
biological half-life,50898
relationship maintenance,50898
light reactions,50898
vesicular stomatitis virus,50898
g-index,50898
matrix-attachment regions,50898
CoML,50898
recombinant factor VIIa,50898
canonized,50898
differential susceptibility hypothesis,50898
The remedies,50898
linear functional,50898
Eurasian jay,50898
marketing mix,50898
ophthalmoscopy,50898
coronary vasospasm,50898
thrombocytosis,50898
water resource management,50898
standard language,50898
heteroscedastic,50898
censorship,50898
splurge,50898
cold seeps,50898
The answers,50898
applied ethics,50898
motor vehicle,50898
musical ornament,50898
thyroxin,50898
prescriptive authority,50898
radon,50898
yield strength,50898
woodmice,50898
breathing room,50898
facial expression,50898
waterfowl,50898
mutual masturbation,50898
The divorce,50898
private policing,50898
vic,50898
concept-mapping,50898
innocent victims,50898
alliance theory,50898
sarcopenic obesity,50898
complex V,50898
travoprost,50898
venous flow,50898
VAV3,50898
lateral hypothalamus,50898
Mcm2,50898
MTS,50898
complex residue,50898
Type II collagen,50898
macrofossil,50898
mGluR2/3,50898
biozone,50898
allotransplantation,50898
Endoglin,50898
MinC,50898
tetratricopeptide,50898
colored dissolved organic matter,50898
neurofilaments,50898
high-energy phosphate,50898
passive physiological intervertebral movements,50898
VCFS,50898
transfusion-related acute lung injury,50898
DNA fragment analysis,50898
Hindustani people,50898
Conduct disorder,50898
SCA group,50898
SIRT1,50898
Molecular Psychiatry,50898
NMR restraints,50898
teres minor,50898
concussion,50898
Pregnancy-induced hypertension,50898
computing platform,50898
tC,50898
Cryptococcus gattii,50898
U937 cells,50898
polar front,50898
NLRC5,50898
MSX2,50898
herpes simplex encephalitis,50898
photochromic,50898
produced water,50898
seismic tomography,50898
SERPING1,50898
rottlerin,50898
M20,50898
sepiapterin,50898
therapeutic range,50898
Hexachlorobenzene,50898
mural,50898
Lithosphere,50898
heregulin,50898
endothelial progenitor cell,50898
t-RNA,50898
pulmonary oedema,50898
bronchial hyperresponsiveness,50898
leapfrog method,50898
Gelrite,50898
Agmatine,50898
Central nervous system,50898
rotating biological contactor,50898
Pregabalin,50898
C. kefyr,50898
orogenic belt,50898
North Atlantic Current,50898
immunological memory,50898
2-phenylindole,50898
CD15,50898
MMP-2,50898
coupled substitution,50898
The understory,50898
Naloxone,50898
Piper,50898
Audiogenic,50898
Tethys,50898
ionisation energy,50898
Fermi Bubbles,50898
calcified tissue,50898
Pneumonitis,50898
HLA-DQA1,50898
PRO-FIT,50898
first-in-man study,50898
arterial embolization,50898
ceramide synthase,50898
2D-PAGE,50898
lindane,50898
H-Ras,50898
Atomoxetine,50898
galactokinase,50898
HT3R,50898
beta-2 microglobulin,50898
Microangiography,50898
bayhead,50898
chemopreventive,50898
Hydroxyurea,50898
BOSS,50898
teleconnection,50898
palindrome,50898
betaine,50898
SLC11A1,50898
myxothiazol,50898
Academia Europaea,50898
Acalypha,50898
Femur,50898
thioredoxin reductase,50898
Type I collagen,50898
stratum lucidum,50898
mango,50898
ionic radius,50898
retrograde metamorphism,50898
pair-instability,50898
fluorine-19,50898
superspecies,50898
chromoprotein,50898
tetrahydrolipstatin,50898
Nebivolol,50898
vacuum chamber,50898
trypan blue,50898
glycoform,50898
UCC,50898
myofibril,50898
Annexin V,50898
retro,50898
molecular microbiology,50898
exothermic reaction,50898
ecliptic pole,50898
anorthosite,50898
ABCC1,50898
HHV6,50898
acyl-CoA oxidase,50898
hypogonadotropic hypogonadism,50898
organotin reagents,50898
Dysplasia,50898
interleukin-15,50898
connected component,50898
insulin lispro,50898
myelin basic protein,50898
rate law,50898
yessotoxin,50898
DNA microarray,50898
Corynebacterium,50898
No age,50898
LyP,50898
Neoproterozoic,50898
adductor muscle,50898
L-KO,50898
R136,50898
Cruzeiro,50898
blood pressure measurement,50898
metabolic control analysis,50898
Sildenafil,50898
encystment,50898
iron overload,50898
DZNep,50898
fifty-fifty,50898
alfalfa,50898
wheat bran,50898
luas,50898
ilmenite,50898
stochastic components,50898
Allobates femoralis,50898
butanone,50898
UF,50898
Chemdiv,50898
TMPRSS6,50898
selective sweep,50898
NF kappa B,50898
Dinarides,50898
PABP,50898
tuber,50898
C. guilliermondii,50898
data centre,50898
intercalary,50898
Supersano,50898
B-50,50898
thrust belt,50898
orbital sulcus,50898
methylene blue,50898
bloating,50898
CRY2,50898
palmitoylated,50898
kidney development,50898
alternative software,50898
Canadian Cordillera,50898
volatile organic compounds,50898
CP70,50898
SLCO1A2,50898
kallikrein-kinin system,50898
viscera,50898
Intelligence quotient,50898
LR group,50898
beta-barrel,50898
integrability condition,50898
febrile seizures,50898
MYH6,50898
quartz diorite,50898
polyphase,50898
nitrous oxide reductase,50898
Cordillera,50898
Westerlies,50898
alkoxide,50898
hemoglobin S,50898
zaparo,50898
S1P receptors,50898
viscoelasticity,50898
electron affinity,50898
Sunflower,50898
COROP,50898
CPU,50898
cancer staging,50898
Spitz nevus,50898
Gene therapy,50898
Gustave Roussy,50898
swelling capacity,50898
pentachlorobenzene,50898
phenolics,50898
Z-disc,50898
The channels,50898
FHM,50898
ATIP,50898
continent-ocean transition,50898
Alchornea,50898
xz,50898
peritoneal equilibration test,50898
Quadratic,50898
glycoconjugate,50898
CHS2,50898
Conohyus,50898
Staurosporine,50898
BLT1,50898
IL-6 receptor,50898
sinusoidal cells,50898
Proterozoic,50898
hypodontia,50898
t-score,50898
sec-butanol,50898
ceruloplasmin,50898
MS4A2,50898
NNK,50898
azaspiracid,50898
turbomolecular pump,50898
European Science Foundation,50898
Microvessel,50898
mRNP,50898
Leontodon,50898
Rare earth element,50898
MyD,50898
skin prick tests,50898
triple-negative breast cancer,50898
Sequenom,50898
statherin,50898
founder mutation,50898
Ott,50898
Eating disorder,50898
Rio Branco,50898
fetal protein,50898
intrinsic curvature,50898
cannabinoid receptor type 1,50898
paresthesias,50898
linear time,50898
Kasumi,50898
isoalloxazine,50898
Lundbeck,50898
stereotaxic atlas,50898
Spitzoid melanoma,50898
Circ Res,50898
neutrophilia,50898
ACTb,50898
ionic radii,50898
Bolangir,50898
cyclic AMP,50898
Roche limit,50898
non-rectifying,50898
IGS,50898
rotating disk electrode,50898
Gomphotherium,50898
MafB,50898
adenovirus vaccine,50898
Dextromethorphan,50898
The Pharmacogenomics Journal,50898
morphotype,50898
IFNGR1,50898
gallium,50898
synthesis gas,50898
GM1,50898
harzburgite,50898
DOA,50898
Catalase,50898
unbiasedness,50898
Intrauterine insemination,50898
heteroleptic,50898
Scavenger receptor,50898
propeptides,50898
implantation rate,50898
desmethyl,50898
Silverstone,50898
Melampyrum pratense,50898
PLL,50898
pUC19,50898
symplectite,50898
mesopredator,50898
centronuclear myopathy,50898
Epoprostenol,50898
Torr.,50898
Phosphatidylinositol,50898
Epitope,50898
tert-butanol,50898
PABA,50898
contact lenses,50898
neuroblasts,50898
Parasitology,50898
nanocrystalline,50898
malignant hyperthermia,50898
air-sensitive,50898
biological warfare,50898
torsional strain,50898
Xia,50898
predictive testing,50898
sea floor spreading,50898
Gall bladder,50898
oligomycin,50898
mycelial,50898
semantic memory,50898
Ice Age,50898
sulfonamide,50898
HMPA,50898
cinnoline,50898
Fried plantain,50898
sodium bisulfite,50898
Enbrel,50898
SLC2A2,50898
pOS,50898
emulsification,50898
iontophoresis,50898
Atopy,50898
prolyl isomerase,50898
National Cancer Institute,50898
ectoderm,50898
Ectopic expression,50898
Fifteen percent,50898
Cleveland,50898
gauge invariance,50898
cytokine receptor,50898
GEDI,50898
ovarian follicle,50898
haploinsufficient,50898
Polder,50898
Mentalization Based Treatment,50898
thromboxane B2,50898
omentum,50898
FGFR,50898
Phytophthora infestans,50898
V. myrtillus,50898
Coccosteus,50898
multi-center studies,50898
serpentine,50898
myopathic,50898
anisocoria,50898
PROX1,50898
Golgi apparatus,50898
cytolytic,50898
TargetScan,50898
SD 12,50898
pulse train,50898
dentin matrix protein 1,50898
FMR,50898
Doeg,50898
Multireference configuration interaction,50898
CCR4,50898
DNA microarrays,50898
Radixin,50898
facula,50898
hyperdynamic circulation,50898
MCI group,50898
tyrosine 3-monooxygenase,50898
early B,50898
flagella,50898
GM2 gangliosidosis,50898
Central System,50898
LDN,50898
protein-DNA interaction,50898
AGP,50898
lymphopoiesis,50898
ceratobranchial,50898
protein targeting,50898
substance P,50898
treatment-resistant depression,50898
COACT,50898
Zhao,50898
kbp,50898
soft diet,50898
TMEFF2,50898
TxB2,50898
FKBP12,50898
self-assembled monolayer,50898
fucosidosis,50898
Pilot study,50898
Sud Ouest,50898
detrital,50898
arterial oxygen tension,50898
electrochemical regeneration,50898
structural motif,50898
MSIE,50898
psychoneuroendocrinology,50898
Talnetant,50898
No interference,50898
strain pattern,50898
Insufflation,50898
ranid,50898
Fried fish,50898
bilobal,50898
Cercopithecus,50898
GATA5,50898
Absolute risk,50898
Bowerbank,50898
polyketide synthase,50898
Nkx2-1,50898
Medina,50898
postural instability,50898
zoospore,50898
Prednisolone,50898
nitrate reductase,50898
TWA,50898
YWHAZ,50898
APB,50898
seesaw mechanism,50898
collagen receptor,50898
von Neumann entropy,50898
Moesin,50898
greater curvature,50898
vitamin A deficiency,50898
occult bleeding,50898
short interfering RNA,50898
Colostethus,50898
intact group,50898
TonB-dependent receptors,50898
time preference,50898
bone marrow-derived macrophage,50898
Weaning,50898
Clinicaltrials.gov,50898
bimodal distribution,50898
Hbegf,50898
Mitogen,50898
PGF2alpha,50898
cyclophilin,50898
Acromegaly,50898
milky spots,50898
HIMU,50898
counterterm,50898
CCR10,50898
iTRAQ,50898
giant impact hypothesis,50898
Salla disease,50898
seafood,50898
Integrin,50898
Elsevier BV,50898
attenuated total reflectance,50898
hydrate,50898
cystathionine,50898
PDS,50898
Macrophage colony-stimulating factor,50898
null allele,50898
seizure disorder,50898
background radioactivity,50898
Irritability,50898
multicopper oxidase,50898
arteriosclerosis,50898
KML,50898
eta2,50898
cresyl violet,50898
True polar wander,50898
digital imaging,50898
remittance,50898
atmospheric correction,50898
Hypothyroidism,50898
T-84,50898
Articular cartilage,50898
monodispersity,50898
Colostethus pratti,50898
self-regulation theory,50898
benzyl bromide,50898
Heijmans,50898
carrier protein,50898
chemistry transport model,50898
Energy transfer,50898
parvulin,50898
overpowered,50898
PK/PD models,50898
photooxidation,50898
perimetry,50898
symmetry forbidden,50898
azo,50898
protection mechanisms,50898
PA system,50898
torsion angle,50898
intraocular melanoma,50898
galactosamine,50898
Apo B,50898
Raninae,50898
laccase,50898
lymphocytosis,50898
Delta upsilon,50898
negative feedback loop,50898
ZFS,50898
Capnocytophaga,50898
GPI anchor,50898
hydrothermal activity,50898
QRT-PCR,50898
Vosmaer,50898
hemopoietic,50898
Jiangsu,50898
detemir,50898
Prog,50898
Dansgaard-Oeschger events,50898
paragonite,50898
Epoetin alfa,50898
aflatoxin B1,50898
hemopexin,50898
Benthic,50898
Cacosterninae,50898
J Bone Miner Res,50898
DKK1,50898
packed red blood cell,50898
Splice,50898
tetramethyltin,50898
Rubus caesius,50898
SWOG,50898
nuclear explosion,50898
GRAN,50898
hypovolaemia,50898
Angptl4,50898
cholangiography,50898
sorbitol,50898
tibicen,50898
continuous relation,50898
follistatin,50898
D-serine,50898
valspodar,50898
Heme,50898
Chinese white,50898
e84,50898
apex predator,50898
CDKN2B,50898
KIAA0196,50898
Antioxidant,50898
bubonic plague,50898
endophytic,50898
tafazzin,50898
Defibrillation,50898
ERCC2,50898
rho-kinase,50898
5-hydroxytryptophan,50898
teratogenic,50898
Savo,50898
continental slope,50898
Petropedetinae,50898
Ferrosilite,50898
Antarctic realm,50898
ultradian rhythm,50898
I formation,50898
allele-specific oligonucleotide,50898
eye-hand coordination,50898
TRPM,50898
NaBH4,50898
beta-glucans,50898
long-term stability,50898
traction force microscopy,50898
electron hole,50898
incises,50898
Mmp2,50898
IGFBP7,50898
Caudate,50898
PKC alpha,50898
e89,50898
tetrachloromethane,50898
vaccine-preventable diseases,50898
peroxisome proliferator-activated receptor alpha,50898
agmatine,50898
excitatory postsynaptic potentials,50898
The pas,50898
focal adhesion kinase,50898
calponin homology domain,50898
vacuum energy,50898
coordination polyhedron,50898
"homogentisate 1,2-dioxygenase",50898
angioma,50898
N-acetylcysteine,50898
phosphatidylinositol 3-phosphate,50898
lherzolite,50898
P-loop,50898
p70 S6 kinase,50898
alloimmunized,50898
Actin,50898
Protein A,50898
agro-ecosystems,50898
borohydride,50898
strumpellin,50898
E/I,50898
Hawaiian,50898
contrast-enhanced ultrasound,50898
Seyfert galaxy,50898
agribusiness,50898
general surgery,50898
microbial rhodopsin,50898
cousin marriage,50898
thermopower,50898
Basic Books,50898
OHC,50898
Cytogenetics,50898
loop representation,50898
BIOMED,50898
peroxisomal disorders,50898
queueing model,50898
forensic psychiatrists,50898
forensic scientist,50898
Remote-sensing,50898
land tenure,50898
nonholonomic,50898
Taenia crassiceps,50898
social procedure,50898
sufficient statistic,50898
chlorosis,50898
BCR-ABL,50898
sign painters,50898
psychoacoustical,50898
Rhine basin,50898
3-aminopyridine-2-carboxaldehyde thiosemicarbazone,50898
hypersonic,50898
seawater pH,50898
Brazilian Portuguese,50898
classroom management,50898
protonmotive force,50898
Luwero District,50898
IOS,50898
palaeoceanography,50898
Euler equation,50898
2001 crisis,50898
Dutch process,50898
convergent series,50898
Pinkel,50898
finite-state,50898
Special Economic Zones,50898
Yellow River,50898
center-of-mass frame,50898
radiation length,50898
Isfahan,50898
hand transplant,50898
dihydrouracil,50898
trochaic,50898
scholastics,50898
psychological disorder,50898
Oregon,50898
science news,50898
SEs,50898
social relation,50898
corner transfer matrix,50898
PET scanner,50898
primary immunodeficiency,50898
lymphomatoid papulosis,50898
k-point,50898
social chart,50898
The System,50898
rostral migratory stream,50898
assisted reproductive technology,50898
divisor,50898
point spread function,50898
Cassiope tetragona,50898
Envisat,50898
particle size analysis,50898
Merino,50898
assortative matching,50898
protic solvent,50898
soft paternalism,50898
viridans streptococci,50898
diterpene,50898
Asteraceae,50898
islet cell,50898
Carrara marble,50898
I-3,50898
CATV,50898
tectorial membrane,50898
"1,4-butanediol",50898
Plexiglas,50898
trematodes,50898
ammonia-oxidizing bacteria,50898
knowledge representation,50898
amorphous solid,50898
intrauterine infections,50898
axisymmetric,50898
scattering theory,50898
solution-focused therapy,50898
travel behavior,50898
similarity search,50898
lithium-ion,50898
Tisza,50898
Surjective,50898
therapeutic ratio,50898
Criminal record,50898
tenascin-X,50898
atomic number,50898
Dubbo,50898
Endothelin,50898
disposable diaper,50898
umbrella term,50898
lactase,50898
The mixtures,50898
Columbine High School massacre,50898
irregular warfare,50898
speech levels,50898
European Union Statistics,50898
hydrologists,50898
tyrosine hydroxylase,50898
Acrocephalus,50898
protecting group,50898
Nonlinear regression,50898
High Atlas,50898
Picea,50898
Big Five Inventory,50898
N-Heterocyclic carbenes,50898
hematochezia,50898
Four members,50898
Correlation coefficient,50898
Autism Spectrum Disorder,50898
Oral Torah,50898
Gaussian field,50898
fur farm,50898
fiscal integration,50898
aortography,50898
expectancy bias,50898
Subjective well-being,50898
quadratic form,50898
specific gravity,50898
Bloch,50898
Bayesian analysis,50898
amblyopia,50898
diaphyses,50898
autoxidation,50898
pentecostal,50898
varimax rotation,50898
differentiable function,50898
deoxynojirimycin,50898
marine sponge,50898
dihydroxyacetone,50898
Ardeche,50898
Topology,50898
Metabolic Syndrome,50898
basic life support,50898
Airbus 320,50898
Arthropoda,50898
hydropower,50898
Social class,50898
multidrug-resistant TB,50898
Bujumbura,50898
multi-pack,50898
dyad,50898
Journal Citation Reports,50898
monocular cues,50898
Gerok,50898
heme oxygenase,50898
normocytic anemia,50898
market friction,50898
batik,50898
Beethoven,50898
Cystatin C,50898
context switching,50898
asymptotically normal,50898
DOMS,50898
biphenylene,50898
radiocarpal joint,50898
reboxetine,50898
Renfrew,50898
ontology alignment,50898
electrodialysis,50898
Lufthansa,50898
rt,50898
anchovy,50898
opsonization,50898
SGCE,50898
infra-red spectroscopy,50898
DNA binding domain,50898
floating zone,50898
geometric interpretation,50898
Robin Hogarth,50898
elliptic equation,50898
scientism,50898
quantile,50898
landscape assessment,50898
osteological,50898
Submillimetre Common-User Bolometer Array,50898
Markov decision process,50898
Gdow,50898
Gram positive,50898
nuclear structure,50898
XXY,50898
PRF1,50898
monad,50898
defy,50898
handloom,50898
temperate coniferous,50898
Central Highlands,50898
Schramm-Loewner Evolution,50898
Wonji,50898
higher fruit,50898
water conflict,50898
Milan,50898
knowledge economy,50898
road movie,50898
histone code,50898
adaptive optics,50898
phishing,50898
Semantic integration,50898
continuous-time Markov process,50898
band keratopathy,50898
flexor carpi ulnaris,50898
dry reforming,50898
Pleuronectes platessa,50898
Glatz,50898
transference,50898
neuromuscular training,50898
carbonic anhydrase inhibitors,50898
harmful algal bloom,50898
design patterns,50898
MIA,50898
BSE,50898
iron sulphide,50898
action principle,50898
GaCl3,50898
Yangtze,50898
pyramid,50898
environmental economists,50898
Acrylate,50898
f-number,50898
melanisation,50898
O(4),50898
knowledge engineering,50898
time-resolved spectroscopy,50898
GEO 600,50898
Arch Phys Med Rehabil,50898
tumour suppressor gene,50898
euro area,50898
anomalous diffusion,50898
facial asymmetry,50898
nomadic pastoralist,50898
oligoastrocytomas,50898
homeomorphic,50898
Walter Sinnott-Armstrong,50898
Leiden University,50898
amitriptyline,50898
Affirmation,50898
hypercarbia,50898
Language Testing,50898
xg,50898
Westwood,50898
Algebra,50898
udder,50898
artificial tears,50898
Data Envelopment Analysis,50898
configuration space,50898
D0 experiment,50898
CD89,50898
point-to-point,50898
yoga,50898
ecological stability,50898
fixed-point,50898
SLC7A9,50898
phycoerythrin,50898
gravitational potential,50898
Jean Renoir,50898
nanoelectromechanical systems,50898
protooncogene,50898
crown ether,50898
Adelie Land,50898
marine communities,50898
reflectory,50898
sine wave,50898
orthorombic,50898
Echteld,50898
econometric modeling,50898
neoliberal,50898
"1,2-benzoquinone",50898
Apodemus,50898
Photosystem I,50898
spatio-temporal structure,50898
onychomycosis,50898
human smuggling,50898
Marguerite de Navarre,50898
acquiescence bias,50898
primary oocyte,50898
CJ,50898
wetting transition,50898
Copenhagen,50898
Berber,50898
western European marriage pattern,50898
Canavan disease,50898
Bhutanese refugees,50898
Non-verbal communication,50898
Vespa tropica,50898
blood-borne pathogens,50898
biohydrogenation,50898
consequentialist,50898
maggot,50898
stakeholder management,50898
magnetostatic,50898
XTE J1550-564,50898
multiagent systems,50898
intraspecific competition,50898
Poissonian,50898
phosphorylase kinase,50898
methanamine,50898
honey,50898
space shuttle,50898
hexafluorophosphate,50898
AMOS,50898
mosasaur,50898
copula,50898
superfamilies,50898
Kant,50898
Fermi hole,50898
intervision,50898
logic-based,50898
DLVO theory,50898
teleseismic,50898
glucosidases,50898
ATP-binding cassette (ABC) transporters,50898
jump discontinuity,50898
stout,50898
acute liver failure,50898
Java,50898
5-methyltetrahydrofolate,50898
aminolysis,50898
La Gomera,50898
toxoid,50898
oligomerisation,50898
metalloid,50898
HPA-1a,50898
object detection,50898
glycogen storage disease,50898
Ferromagnetic,50898
neoliberalism,50898
Outpatient department,50898
canine teeth,50898
emotional proximity,50898
DH,50898
seal,50898
Xrays,50898
Waal,50898
Band structure,50898
mutualisms,50898
bourgeoisie,50898
pasteurized,50898
political party,50898
dmu,50898
linearisation,50898
erythropoiesis-stimulating agents,50898
trapped ions,50898
bifurcation diagram,50898
Concentric circles,50898
joint attention,50898
R-Parity,50898
tors,50898
NK1 receptor antagonist,50898
Ebro delta,50898
Automatic differentiation,50898
cyclobutane,50898
trigonometric functions,50898
pentane,50898
Late Devonian,50898
local planning,50898
physical capital,50898
emotional Stroop,50898
family practitioners,50898
data center,50898
integrated assessment model,50898
icosahedral group,50898
Eilat,50898
Bosnian war,50898
arabinogalactan,50898
interspecific cooperation,50898
4-methylphenol,50898
parent material,50898
quenched approximation,50898
Earth System Governance Project,50898
intracellular pathogen,50898
duodenal bulb,50898
American Dental Association (ADA),50898
Soil erosion,50898
DDQ,50898
personal identity,50898
monadic,50898
leadership climate,50898
endocytic trafficking,50898
broadsheet,50898
Mesolithic,50898
working electrode,50898
Cerastoderma edule,50898
second-order phase transition,50898
photosensitizing agents,50898
methylenetetrahydrofolate reductase deficiency,50898
speculative attacks,50898
Joost van den Vondel,50898
rab3a,50898
sore throat,50898
orgasm,50898
Upper Bavaria,50898
gluteal region,50898
economic indicator,50898
PhP,50898
psoralens,50898
Anxiety disorder,50898
mucociliary clearance,50898
nucleophile,50898
white noise,50898
cyclic order,50898
exorcism,50898
standing-wave,50898
first-person shooter,50898
bone maturation,50898
high-performance computing,50898
Free University Amsterdam,50898
Thermal expansion,50898
Mumbai,50898
business game,50898
DEBtox,50898
multiscale modeling,50898
Anthropology,50898
priory,50898
submersed,50898
inductively coupled plasma optical emission spectroscopy,50898
diamine,50898
commercial fisheries,50898
ITEP,50898
subordinating conjunction,50898
Bolgatanga,50898
autoregressive integrated moving average,50898
N-Myc,50898
mesoscale,50898
XII,50898
Methanococcus,50898
basophil,50898
PP3,50898
Sulfotransferase,50898
Neptune,50898
platelet-derived endothelial cell growth factor,50898
reaction-diffusion equations,50898
ULB,50898
Dynamic imaging,50898
British Columbia,50898
asymptotic relative efficiency,50898
beta-function,50898
pyrrolidinones,50898
logical consequence,50898
orthotic,50898
I/O,50898
Gluck,50898
tooth eruption,50898
Bifidobacteria,50898
levator palpebrae superioris,50898
2008 global economic crisis,50898
cannulation,50898
gangliosides,50898
fractional statistics,50898
triple junction,50898
Herfindahl-Hirschman Index,50898
Phototropin,50898
Reykjanes Ridge,50898
Margaret Urban Walker,50898
acute promyelocytic leukemia,50898
Infrared Space Observatory,50898
magneto-encephalography,50898
popular alternative,50898
sensor networks,50898
non-disjunction,50898
binocularity,50898
thermal diffusivity,50898
intraperitoneal administration,50898
CCH,50898
Hearing test,50898
isobutylmethylxanthine,50898
magnetometer,50898
anaerobic respiration,50898
monocrystalline,50898
insidious,50898
SU(2),50898
EIOPA,50898
public-private partnership,50898
trait activation theory,50898
temporalities,50898
connective tissue disorder,50898
petal,50898
breakwater,50898
hyperplane,50898
linear alkyl benzene,50898
Mumbai Metropolitan Region,50898
acenaphthenequinone,50898
T-cell immunity,50898
bacteriocin,50898
trifluoromethane,50898
neo-angiogenesis,50898
Osteocalcin,50898
binding constant,50898
7q36,50898
fin,50898
NBQX,50898
alloimmunity,50898
phosphatidylinositol 4-phosphate,50898
pseudosubstrate,50898
two-stage theory,50898
gross primary production,50898
tooth resorption,50898
Neuquen,50898
Prosopagnosia,50898
HEP,50898
Meijer,50898
GCK,50898
NK3,50898
Bont,50898
methanogens,50898
carbon-to-nitrogen ratio,50898
urease,50898
Vascular dementia,50898
squarate,50898
Switchers,50898
sandflies,50898
cliff,50898
recurrence intervals,50898
DOPA,50898
anorexia,50898
transient receptor potential,50898
triple helix,50898
radioprotective,50898
fragile balance,50898
Calu,50898
Fusobacterium,50898
antihistaminergic,50898
deuteride,50898
geodynamical,50898
rTPA,50898
acidogenic,50898
Penicillin G,50898
experimental literature,50898
Polynesian,50898
Phlebotomus,50898
AS04,50898
sPLA2,50898
angiogenesis inhibitor,50898
Thin layer chromatography,50898
metaphyseal,50898
SDF1,50898
ERBB2,50898
protein phosphatase 1,50898
receptor heteromer,50898
syncline,50898
iodobenzene,50898
Laniquidar,50898
Pioglitazone,50898
Okazaki fragment,50898
El Abra,50898
Poorly formed,50898
ADCP,50898
late phases,50898
varices,50898
LAM.,50898
metric tonne,50898
deoxycytidine triphosphate,50898
tellurite,50898
open access journal,50898
soluble guanylate cyclase,50898
Diarrhea,50898
steroid receptor,50898
anaerobic growth,50898
interferon beta-1a,50898
APS reductase,50898
TonB,50898
hyperkeratosis,50898
Schwinger model,50898
D-ring,50898
Minyobates,50898
Hadean,50898
minuta,50898
ribosomal protein,50898
protein phosphatase 2a,50898
MCM3,50898
ribose,50898
beta-hydride elimination,50898
DHHC domain,50898
Medarex,50898
preprandial,50898
heteromer,50898
Five-year survival rate,50898
adrenergic receptor,50898
penicillamine,50898
HSP27,50898
fruit allergy,50898
Heat treatment,50898
experimental yield,50898
guanylate cyclase,50898
wortmannin,50898
MCM4,50898
paralysis,50898
guanosine triphosphate,50898
acid-base disturbances,50898
Bristol-Myers Squibb,50898
extensional fault,50898
Singaraja,50898
tonne,50898
anti-VEGF therapy,50898
leptomeninges,50898
adventitia,50898
Baltic region,50898
Kaapvaal,50898
phosphorus cycle,50898
prograding,50898
Valspodar,50898
AT1,50898
Slc5a5,50898
Han dynasty,50898
SCID mice,50898
renal plasma flow,50898
vasoconstricting,50898
Lavrion,50898
dipolar coupling,50898
Promiscuous,50898
Yanai,50898
depolarisation,50898
Pentoxifylline,50898
Dendrobates,50898
nonsense-mediated decay,50898
Novartis,50898
Linkage analysis,50898
FANCA,50898
ADAMTS,50898
Zool,50898
intracratonic,50898
Mmp13,50898
Basement membrane,50898
MCM6,50898
Dev,50898
allorecognition,50898
The EMBO Journal,50898
FANCF,50898
rift basin,50898
hornblende,50898
SGOT,50898
anginal,50898
Laurussia,50898
HLA-DR1,50898
Cycladic Islands,50898
Severnaya Zemlya,50898
ganglioglioma,50898
transesterification,50898
heptanal,50898
Nicotinamide adenine dinucleotide phosphate,50898
Taurus,50898
HEK 293 cells,50898
dn,50898
metaphase,50898
Cardiac MRI,50898
MCM7,50898
flippase,50898
312B,50898
potassium hydroxide,50898
L. infantum,50898
Hildebrand,50898
Gondwana,50898
amyloid plaque,50898
Sinai,50898
junior synonyms,50898
A14,50898
molecular therapeutics,50898
gastric balloon,50898
cementoblasts,50898
Pertuzumab,50898
The motivation,50898
embayment,50898
automated external defibrillation,50898
PVO,50898
norepinephrine reuptake inhibitor,50898
goniometric,50898
situated learning,50898
The investigators,50898
bounded emotionality,50898
marsupialization,50898
fungivorous,50898
International Human Dimensions Programme,50898
geometrical optics,50898
cross-entropy,50898
paws.,50898
D-2-hydroxyglutarate dehydrogenase,50898
competition policy,50898
navel,50898
carrier testing,50898
International Whaling Commission,50898
Tevatron,50898
Temnothorax albipennis,50898
computer program,50898
rapid sequence induction,50898
Corsican pine,50898
GDR,50898
Absolute configuration,50898
lumbar region,50898
specific energy,50898
Lake Taihu,50898
optometric,50898
bioethics,50898
Impaired glucose tolerance,50898
semantic integration,50898
nearest neighbor method,50898
cerebral arteries,50898
Stature,50898
I-4,50898
National Socialist,50898
L.E.J,50898
Hermitian operator,50898
irreducible representation,50898
slaughterhouse,50898
postmortem studies,50898
normal modal logic,50898
Crenarchaeota,50898
electronegative,50898
Thermoregulation,50898
low-molecular weight heparin,50898
software configuration management,50898
side jobs,50898
Carl Koch,50898
perineal trauma,50898
radiopacity,50898
Goldfish,50898
motor retardation,50898
Reverse Transcriptase PCR,50898
Stimulant,50898
Suez,50898
Geometric algebra,50898
scale analysis,50898
cumulative frequency,50898
dyskaryosis,50898
Von Hippel-Lindau,50898
hepatology,50898
non-alcoholic steatohepatitis,50898
bricoleurs,50898
Karst,50898
Functional neuroimaging,50898
public law,50898
Royal Netherlands Air Force,50898
I frame,50898
ephemeris,50898
genome annotation,50898
premia,50898
Serranus,50898
humic substances,50898
English literature,50898
stromelysin,50898
Bayes factor,50898
focal adhesion kinase (FAK),50898
Focsani,50898
Ontology,50898
Frankfurt,50898
linear logic,50898
error components,50898
orthologues,50898
orthogonal basis,50898
likelihood principle,50898
Ginostra,50898
Guasca,50898
relational ethics,50898
haptic cues,50898
triazene,50898
UMLS,50898
laminar flow,50898
quantum group,50898
program verification,50898
Cerebral blood flow,50898
Afar region,50898
faith healing,50898
cognitive behaviour therapy,50898
dihedral,50898
cranium,50898
universal properties,50898
component model,50898
synchronic,50898
Herbig Ae/Be stars,50898
solidify,50898
clinical psychologists,50898
place branding,50898
class invariant,50898
electronic medical record,50898
Alpay,50898
Makassar,50898
incomes policy,50898
RARS,50898
phlorizin,50898
polycyclic compounds,50898
marker assisted selection,50898
William Rowan Hamilton,50898
sun protection factor,50898
small change,50898
World War I,50898
joint mobilization,50898
atmospheric inversion,50898
gabapentinoids,50898
curettage,50898
Basal ganglia,50898
enzymopathy,50898
post-dural puncture headache,50898
dienophile,50898
Faraday balance,50898
Mycophenolate mofetil,50898
phase boundary,50898
strabismus,50898
PAX5,50898
parent structure,50898
Byzantine,50898
Stuart Dreyfus,50898
bow,50898
chemical clock,50898
inattentive type,50898
optoacoustic,50898
Norton,50898
chalk grassland,50898
EML4,50898
NAAT,50898
IARC,50898
alkyl benzene sulfonate,50898
Weakly Interacting Massive Particles,50898
coordination number,50898
gross national income,50898
Alderson,50898
Acute pain,50898
vitamin deficiency,50898
knowledge mobilization,50898
Naturalism,50898
subclade,50898
stack traces,50898
table fish,50898
stereotactic radiation therapy,50898
DNA chip,50898
tempi,50898
GTF2H1,50898
exhalation,50898
ultraviolet A,50898
slave trade,50898
fascination,50898
polylactide,50898
O-ring,50898
SVG animation,50898
diaper,50898
social network analysis,50898
hysteresis loop,50898
palmaris longus,50898
Swiss Alps,50898
photometric system,50898
Variety,50898
evoked potential,50898
tetrafluoroborate,50898
Antarctic polar front,50898
Vastus lateralis,50898
behavioural neuroscience,50898
left atrium,50898
CACNA1A gene,50898
Antarctic Peninsula,50898
Hamilton cycle,50898
planetary science,50898
Ticagrelor,50898
Isoenzyme,50898
Data aggregation,50898
protection motivation theory,50898
methylated spirit,50898
exponential process,50898
cytochrome P450 1A2,50898
Pseudotsuga,50898
stochastic process,50898
rotational angiography,50898
microfoundations,50898
Contractures,50898
European Central Bank,50898
Upper East,50898
Rituxan,50898
high performance computing,50898
unconformity,50898
sustainable land management,50898
bowel obstruction,50898
Secchi disc,50898
absolute humidity,50898
Constantine,50898
Pannonian basin,50898
The grid,50898
forceplate,50898
reaction kinetics,50898
Cryptocaryon,50898
FANCN,50898
greigite,50898
cellular traffic,50898
Eucalyptus,50898
2-phenylpyridine,50898
multitasking,50898
optical switches,50898
edulis,50898
face-to-face interaction,50898
bacterial circadian rhythms,50898
The unit,50898
conductor,50898
reference model,50898
Truro,50898
CALUX,50898
heap,50898
support vector machines,50898
carbon fiber,50898
Covenant,50898
failure mode,50898
Yanukovych,50898
double glazing,50898
Simonides,50898
Lipschitz continuity,50898
Prydz Bay,50898
over-exploitation,50898
statistical regression,50898
Delley,50898
polyisobutylene,50898
fifty fifty,50898
PODS,50898
Kuramoto-Sivashinsky equation,50898
Malleability,50898
extensor hallucis longus muscle,50898
coexistence curve,50898
tributyltin hydride,50898
lexical access,50898
labyrinth,50898
Texas,50898
Tipifarnib,50898
clinical prediction rule,50898
stakeholder theory,50898
partial differential equations,50898
broadcast titles,50898
endoscopic ultrasound,50898
Experimental autoimmune encephalomyelitis,50898
homologous series,50898
social networking,50898
Haematology,50898
cartilaginous fishes,50898
room temperature ionic liquid,50898
sibling marriage,50898
communes,50898
dental restorative material,50898
Red Sea,50898
Indore,50898
JAR,50898
Fraunhofer lines,50898
Trans-European networks,50898
Vitis vinifera,50898
sympathetic nerves,50898
ECHR,50898
typhoid fever,50898
Trapezius,50898
Technology transfer,50898
isorenieratene,50898
Emissions Scenarios,50898
hepatomegaly,50898
joint probability distribution,50898
Kanizsa triangle,50898
antiquity,50898
Santiago,50898
tandem affinity purification,50898
salinisation,50898
Basque,50898
tinnitus,50898
self-assembled monolayers,50898
Markovian arrival process,50898
Science Citation Index Expanded,50898
Ketone,50898
carboxymethyl cellulose,50898
victim blaming,50898
Susanna,50898
Engraulis encrasicolus,50898
winding number,50898
Sarcomere,50898
anti-depressant,50898
competitive ratio,50898
double depression,50898
transactional model,50898
Adriaan Kluit,50898
scheduling algorithm,50898
Ningxia Hui Autonomous Region,50898
orogenic belts,50898
participatory observation,50898
trinucleotide repeat,50898
cerebral edema,50898
square wave,50898
Delphi Study,50898
Xilingol,50898
control theory,50898
ciliopathies,50898
axis II,50898
afforestation,50898
photo story,50898
Food composition,50898
PASCAL,50898
front crawl,50898
echos,50898
clinical psychiatry,50898
liberal democracy,50898
empty spaces,50898
Manual Ability Classification System,50898
inflammatory myopathies,50898
oceanographic,50898
24th Congresses,50898
penalty kick,50898
Deroceras panormitanum,50898
granzyme A,50898
alkene metathesis,50898
acrylate,50898
mass transportation,50898
TGN1412,50898
residual variance,50898
Middle Devonian,50898
Methanol,50898
thermoregulatory,50898
Hominoidea,50898
primordia,50898
Pittsburgh compound B,50898
civil liberties,50898
economic bubble,50898
fetishism,50898
autosomal recessive polycystic kidney disease,50898
direct product,50898
Anser albifrons,50898
porphyric,50898
nitroxide,50898
performance studies,50898
PsychINFO,50898
semi-arid climate,50898
Little Bahama Bank,50898
systematic bias,50898
dispersion relation,50898
racing game,50898
Condorcet,50898
Maarsseveen,50898
Meeder,50898
social democrats,50898
J Am Board Fam Med,50898
hierarchical routing,50898
asymptotic theory,50898
Upper limb,50898
ODT,50898
missing pieces,50898
Isatis,50898
Fasudil,50898
Olistostrome,50898
English common law,50898
octahedral group,50898
hygromycin,50898
participatory ergonomics,50898
spet,50898
stereoselectivity,50898
uropod,50898
microtubule-associated protein,50898
spectroscopic signature,50898
partial seizures,50898
Terminal restriction fragment length polymorphism,50898
highland city,50898
Chicago Board Options Exchange,50898
noun,50898
Stripped,50898
muscle biopsy,50898
Ginsburg,50898
molybdate,50898
Multi-agent systems,50898
Ecological Economics,50898
9/11,50898
isometries,50898
Optical coherence tomography (OCT),50898
sample size determination,50898
Gyrification,50898
Galerkin,50898
intimate contact,50898
granitic,50898
anxiolysis,50898
Chinese literature,50898
gnathostome,50898
Berkel,50898
cryptitis,50898
HEK 293,50898
insulin receptor,50898
N-acetylgalactosamine,50898
autophosphorylation,50898
L6,50898
pheomelanin,50898
escape mechanism,50898
Preprandial,50898
p50,50898
lactose intolerance,50898
sulfatase,50898
TAP-1,50898
dimaprit,50898
fifteen percent,50898
tapasin,50898
granite,50898
chondritic,50898
coagulation cascade,50898
zymography,50898
perinatal period,50898
pre-Columbian,50898
back-arc basin,50898
sound studies,50898
Mongolian,50898
Chondrichthyes,50898
Anti-Cancer Drugs,50898
German Research Foundation (DFG),50898
lipoatrophy,50898
secondary forest,50898
Pepe,50898
helicopter,50898
Laryngoscopy,50898
proteolytic enzyme,50898
CaseA,50898
urban climate,50898
"Swat, Pakistan",50898
mycotoxin,50898
pulmonology,50898
van de Hulst,50898
Mood Disorder,50898
Exploratory factor analysis,50898
Fritsch,50898
Royal Netherlands Naval College,50898
Renaissance,50898
carboxamide,50898
ketenimine,50898
spectral classification,50898
aromatisation,50898
Star clusters,50898
nitrogen assimilation,50898
thermal grill illusion,50898
ribonucleotide reductase,50898
adductor pollicis,50898
TCIRG1,50898
contrast resolution,50898
ray class group,50898
square degree,50898
deconstruction,50898
Evolocumab,50898
righting reflex,50898
J Physiol,50898
The positions,50898
neurogranin,50898
Anchorage Island,50898
Skawina,50898
discretization error,50898
shared object,50898
XPC,50898
EU ETS,50898
Calc-silicate,50898
gelatinase,50898
IHDP,50898
Star Alliance,50898
transplanted hearts,50898
4 students,50898
commune,50898
hybridomas,50898
Forel-Ule scale,50898
dysgenetic,50898
flash mob,50898
sex work,50898
xenophobic,50898
superlattice,50898
Solanaceous,50898
SOFC,50898
Handel,50898
emotional dysregulation,50898
Zomia,50898
voltage-clamp,50898
statistical regularity,50898
neurologic examination,50898
black virgin,50898
antioxidative,50898
Paracoccus denitrificans,50898
controlled vocabularies,50898
conjugate gradient,50898
naratriptan,50898
lattice simulations,50898
Utrecht province,50898
fundamental niche,50898
digital video,50898
CMT,50898
hypotrichosis,50898
Tauberian theorems,50898
Biscay,50898
loosely coupled,50898
suxamethonium,50898
Major Depressive Disorder,50898
myelitis,50898
Wind Chill,50898
lymphatics,50898
adriamycin,50898
tertiary amine,50898
CD23,50898
sugarcane,50898
Logan plot,50898
hard power,50898
shortest path problem,50898
electropositive,50898
multidimensional scaling,50898
bremsstrahlung,50898
deoxynucleosides,50898
Hettangian,50898
protecting groups,50898
nursing practice,50898
bug tracking,50898
deictic,50898
assigned risk,50898
dioecy,50898
Crangon crangon,50898
biomedical sciences,50898
Ramanujan,50898
The groundwork,50898
MUP,50898
Quantitative Computed Tomography,50898
Eifel,50898
Sleep inertia,50898
phosphatidylinositol 4-kinase,50898
high-temperature superconductors,50898
fencer,50898
internal waves,50898
Nebulin,50898
la Harpe,50898
holding cost,50898
DAWN,50898
Preston,50898
G Protein-Coupled Receptors,50898
chalk hill,50898
informalization,50898
K2,50898
Tethered particle motion,50898
Bhubaneswar,50898
windshield wiper,50898
Henri Nouwen,50898
differentiated service,50898
Deltoid,50898
HKS,50898
Northern Ireland,50898
tetrahedral group,50898
8 women,50898
veterinarian,50898
organizational identification,50898
hyperaccumulators,50898
Systemic disease,50898
meristic,50898
iron ore,50898
applied general equilibrium,50898
hand surgery,50898
The Cochrane Library,50898
paraoxonase,50898
Epithelial cell,50898
Min system,50898
utility model,50898
Ceram,50898
ocean island,50898
Central Committee,50898
Pajek,50898
mental age,50898
mathematical analysis,50898
proximal interphalangeal joint,50898
plastics industry,50898
cardiothoracic surgery,50898
profit sharing,50898
GAP-43,50898
lung function tests,50898
Cardiff,50898
Environmental education,50898
cold front,50898
invisible violence,50898
2x2x2,50898
Hilbert cube,50898
Paulus,50898
retrotransposon,50898
peacock,50898
Curacao,50898
Equator,50898
CHAM,50898
intrusive thinking,50898
opium,50898
Crom,50898
SO(7),50898
Hamiltonian matrix,50898
complex adaptive systems,50898
vasa deferentia,50898
Social Sciences Citation Index,50898
numerical dispersion,50898
noninvasive ventilation,50898
Cerebral amyloid angiopathy,50898
Exploratory data analysis,50898
BCl2,50898
Personal Relationships,50898
positive thinking,50898
glucagon-like peptide-1 receptor agonist,50898
Topcon,50898
self-actualization,50898
megasclere,50898
agent-based modelling,50898
Missing values,50898
wee1,50898
net migration rate,50898
Muenster,50898
Batumi,50898
attached gingiva,50898
molecular symmetry,50898
quality factor,50898
stationary point,50898
Lymphoblastoid,50898
Marina di Camerota,50898
ols,50898
Randomized clinical trial,50898
St George,50898
Firstborn,50898
Accenture,50898
Guinea-Bissau,50898
Estates-General,50898
market segmentation,50898
Emergency Medicine,50898
osteoimmunology,50898
Sensorineural hearing loss,50898
macroorchidism,50898
James Clerk Maxwell Telescope,50898
Minecraft,50898
D2HGDH,50898
Tissue expansion,50898
silk,50898
conchiolin,50898
arXiv,50898
Cercopithecoidea,50898
XAS,50898
basilar artery,50898
8-hydroxyquinoline,50898
ophthalmoplegia,50898
community fingerprinting,50898
Carassius,50898
AT5,50898
Gaussian free field,50898
Harrison,50898
corneal disease,50898
thyroid function tests,50898
direct methods,50898
TNFRSF1A,50898
Mark Krein,50898
Persian,50898
lymphomagenesis,50898
surface-enhanced Raman spectroscopy (SERS),50898
TMPRSS2,50898
delay discounting,50898
Ironic,50898
Cramer,50898
tympanic membrane,50898
smart city,50898
strategic intervention,50898
vergence,50898
hard palate,50898
iron dextran,50898
practical reason,50898
Hepatitis B virus,50898
Fermi gamma-ray Space Telescope,50898
BODIPY,50898
GUT scale,50898
outgrow,50898
silique,50898
Hexetidine,50898
anarchist,50898
parallel study,50898
chromatographic separations,50898
extensor carpi ulnaris,50898
Franco,50898
Single nucleotide polymorphisms (SNPs),50898
chemical crosslinking,50898
infective endocarditis,50898
finite model property,50898
fatty liver disease,50898
Ising spin,50898
Microseris douglasii,50898
logarithmic conformal field theory,50898
Paneth cells,50898
Queensland,50898
probability density function,50898
hematological malignancy,50898
R parity,50898
ECOWAS,50898
waterway,50898
industrial applicability,50898
OpenFlow,50898
olfactory bulb,50898
Dragonja,50898
prebiotic,50898
ferromagnets,50898
shutter,50898
naturalism,50898
Chi-square tests,50898
acquired brain injury,50898
batch processing,50898
mestizo,50898
Navier,50898
fuel oil,50898
Languedoc Roussillon,50898
reformism,50898
virtual cell,50898
condictio,50898
carburized,50898
Marxan,50898
Box-Cox,50898
x-ray binary,50898
dialect chain,50898
dichotic listening,50898
VC dimension,50898
electron spectroscopy,50898
dual energy X-ray absorptiometry,50898
concept mapping,50898
Cleft Palate,50898
Islamic terrorist,50898
minimal group paradigm,50898
electrode array,50898
Ca2+ channels,50898
plague,50898
coprecipitation,50898
opals,50898
combinatory logic,50898
swimmer,50898
fluorenyl,50898
special pleading,50898
spatial development,50898
GAUSSIAN,50898
cephalogram,50898
Duncan Farquharson Gregory,50898
Pex5,50898
MP3 player,50898
A Cox,50898
Nycomed,50898
audiogram,50898
transcranial magnetic stimulation,50898
conformal anomaly,50898
inter vivos,50898
squatting,50898
optical conductivity,50898
Volatility,50898
narrowcasting,50898
Addis Ababa,50898
secondary emission,50898
secular clergy,50898
Emotionally Focused Therapy,50898
strategy map,50898
deep peroneal nerve,50898
AutoDock,50898
Karachi,50898
internal energy,50898
orbicularis oculi,50898
free-electron laser,50898
spreading center,50898
dental prophylaxis,50898
Canada-France-Hawaii Telescope,50898
petrochemistry,50898
SCl2,50898
impact crater,50898
Catecholamines,50898
lipohypertrophy,50898
Sulli,50898
Endocrine-Related Cancer,50898
Myocardial ischemia,50898
Spanish conquest,50898
porphyry copper,50898
Nerve biopsy,50898
Ionian,50898
subduction system,50898
MYC,50898
abyssal plain,50898
Didymopanax,50898
MPB,50898
rapid prototyping,50898
cathode,50898
Lagrange multiplier,50898
group I intron,50898
pancreatic ductal adenocarcinoma,50898
harbor city,50898
tosylate,50898
Leidsche Rijn,50898
suprachiasmatic nuclei,50898
coulometric,50898
clinical protocol,50898
running coupling,50898
cocreated,50898
Southern England,50898
Sucrose,50898
Buccal fat pad,50898
enterotoxin,50898
rheophilic,50898
chronostratigraphy,50898
Atlantic Time,50898
ea,50898
factor H,50898
coloured Petri nets,50898
scale invariant,50898
Anosov,50898
magnetoencephalogram,50898
antiarrhythmics,50898
shared variance,50898
eccentric contraction,50898
disease mapping,50898
Computational Intelligence,50898
semantic similarity,50898
endothermic,50898
Capillaries,50898
solute carrier family,50898
peacekeeping,50898
Heat shock protein,50898
jungle,50898
Numerical analysis,50898
Southern African Development Community,50898
Commodity Fetishism,50898
orthostatic hypotension,50898
Lagrange multiplier statistics,50898
hermaphroditism,50898
scanning transmission electron microscope,50898
net impact,50898
fumagillin,50898
multi-drug resistance,50898
David Hilbert,50898
reflection positivity,50898
2-methylpyridine,50898
multidrug resistance protein 4,50898
X-ray scattering,50898
firmisternal,50898
social surplus,50898
decubitus ulcer,50898
diopside,50898
NaN,50898
peripheral blood cell,50898
immuno-compromised,50898
molasses,50898
future profits,50898
barrier cream,50898
modus vivendi,50898
Punch,50898
idiographic,50898
nontransitive,50898
jejunostomy,50898
Electrophoresis,50898
UN Environment Programme,50898
SIRP,50898
Leyden,50898
parent management training,50898
IAM,50898
Arts & Humanities Citation Index,50898
French Guiana,50898
micro-satellite,50898
human leg,50898
cooperative breeding,50898
common oak,50898
neuromodulin,50898
Tephritidae,50898
Novo Nordisk,50898
cross coupling reaction,50898
ama,50898
Relative risk,50898
follicular dendritic cells,50898
quitline,50898
linear motor,50898
distributed parameter system,50898
Computer Tomography,50898
large cell lymphoma,50898
catechol-O-methyl transferase,50898
critical incident stress debriefing,50898
mastoid air cells,50898
substitution matrix,50898
Vina,50898
introversion,50898
Pentecostal,50898
sharp peak,50898
RNA-interference,50898
UV/vis spectroscopy,50898
L7,50898
Shiraz,50898
bastion,50898
psychobiological,50898
glycosyltransferase,50898
climate proxy,50898
P Cygni,50898
concept maps,50898
molecular diversity,50898
hepatic ischemia,50898
vector quantization,50898
A22,50898
amu,50898
nephrolithiasis,50898
New York Heart Association,50898
secretory pathway,50898
Royal Navy,50898
mouthfeel,50898
model behavior,50898
L-lactate,50898
Zirconia,50898
Anton I,50898
antisaccade,50898
rational basis,50898
virial,50898
thoracic ganglia,50898
galactitol,50898
Patient empowerment,50898
benzenesulfonate,50898
Old World,50898
Jean-Claude Juncker,50898
evidence-based policy,50898
wind power,50898
neutral antagonists,50898
Wageningen,50898
protein model,50898
Tampa,50898
Atos Origin,50898
Online survey,50898
Markov Chain Monte Carlo (MCMC),50898
biophoton,50898
complex analysis,50898
XRB,50898
pQCT,50898
coordination compound,50898
beta-mercaptoethanol,50898
plane angle,50898
phonological deficit,50898
cultural competence,50898
diffusion equation,50898
ganglioside,50898
random group,50898
decision analytic,50898
countable set,50898
consistency model,50898
2001 Czech Republic,50898
otolaryngologists,50898
Peclet number,50898
original counterpart,50898
Vellore district,50898
Out-of-pocket expenses,50898
sediment transport,50898
forest ecology,50898
benzophenone,50898
mycobacterium,50898
calsequestrin,50898
permanent teeth,50898
atomicity,50898
central venous access device,50898
Gold standard,50898
aspen,50898
actinide,50898
Pb-210,50898
Heart disease,50898
MERLIN,50898
environmental history,50898
adrenal gland,50898
Cost-utility analysis,50898
group extension,50898
mode volume,50898
blood donation,50898
William Walton,50898
loss aversion,50898
public expenditures,50898
pleomorphic,50898
Conakry,50898
argininosuccinic aciduria,50898
spontaneously hypertensive rat,50898
Hempel,50898
approximate dynamic programming,50898
psychological refractory period,50898
ejaculatory duct,50898
PerkinElmer,50898
matrix-assisted laser desorption/ionization,50898
lipooligosaccharides,50898
suicide method,50898
Psychological Review,50898
deafferentation,50898
pulmonary artery catheter,50898
Hydrogenography,50898
electric toothbrush,50898
Blindness,50898
swarm intelligence,50898
Pex7,50898
Millennium,50898
2-arachidonoyl glycerol,50898
voltage-gated calcium channels,50898
phosphinite,50898
molar volume,50898
Magnoliidae,50898
OWL 2,50898
Rent,50898
plant breeding,50898
column generation,50898
cytochromes P450,50898
truthmaker,50898
divisor class,50898
Deoxyribose,50898
Sandoz,50898
color photography,50898
dihedral group,50898
osteoarthrosis,50898
Seattle,50898
Perionyx excavatus,50898
William IV,50898
trophallaxis,50898
hexetidine,50898
mechanical alloying,50898
Basophilic stippling,50898
acidity constant,50898
carabid,50898
cultural homogenization,50898
Image analysis,50898
FUSE,50898
cline,50898
nuclear magnetic resonance spectroscopy,50898
fetal growth retardation,50898
Rasch model,50898
acetic anhydride,50898
contemporary art,50898
regular clergy,50898
Nordic Bronze Age,50898
picogram,50898
Tendinopathy,50898
Ashanti Region,50898
upper semicontinuous,50898
popliteal,50898
insertional inactivation,50898
hyperfine interaction,50898
random numbers,50898
attentional shift,50898
hybridoma,50898
Disruptive selection,50898
CHAMP,50898
MAAS,50898
molybdenum cofactor,50898
progress testing,50898
Festuca,50898
dynamic global vegetation model,50898
NDDO,50898
FGFR2,50898
Lamina propria,50898
cryptococcal,50898
gag-,50898
familial partial lipodystrophy,50898
Externalizing behavior,50898
magnesium sulphate,50898
Neutron diffraction,50898
Metropolis,50898
geometrically distributed,50898
Neck dissection,50898
Anthropometry,50898
Third Person,50898
patient health questionnaire,50898
Bonaire,50898
financial inclusion,50898
basket,50898
Opacity,50898
data comparison,50898
project risk management,50898
100 degrees,50898
Signy Island,50898
reading frame,50898
vacant niches,50898
ion-exchange,50898
WCET,50898
Meeus,50898
Visconti,50898
stroboscopic,50898
United European Gastroenterology,50898
hypereosinophilia,50898
evaporite,50898
suffrage,50898
EBF1,50898
Fermi surface,50898
autoimmune thyroiditis,50898
Biodiesel,50898
Guba,50898
The 1000 Genomes project,50898
abelian,50898
spin-orbital coupling,50898
open reading frame (ORF),50898
jihadist,50898
reef fish,50898
vein graft failure,50898
open-chain,50898
Lyman Alpha,50898
Oudemans,50898
social constructionism,50898
developmentalist,50898
CC system,50898
anaplastic large cell lymphoma,50898
integrate-and-fire model,50898
nosology,50898
Whole genome sequencing,50898
social cognitive theory,50898
pinna,50898
The liability,50898
ejis,50898
capillary length,50898
Hybrid Monte Carlo,50898
beta-adrenergic receptor,50898
stearoyl-CoA,50898
ChEBI,50898
Felis domesticus,50898
histidine-tryptophan-ketoglutarate,50898
Jalview,50898
HLA-DR7,50898
Coronary CT angiography,50898
VASP,50898
Renal transplant,50898
Biochemistry,50898
HLA-DM,50898
network monitoring,50898
omphalocele,50898
close harmony,50898
crop insurance,50898
iterative refinement,50898
MAP3K1,50898
pseudo-Anosov,50898
flexible linker,50898
UNPROFOR,50898
Lumbriculus variegatus,50898
self-organized critical,50898
X-ray tomography,50898
Semitendinosus,50898
Ti-6Al-4V,50898
Lintuzumab,50898
CCSD(T),50898
walking shoes,50898
early modern Europe,50898
sentinel species,50898
LTE,50898
minimum tillage,50898
dihedral angle,50898
Andreev reflection,50898
Pain scale,50898
phosphonium,50898
polyketide,50898
regular language,50898
isomorphic,50898
VOS,50898
pyrolytic,50898
semantic queries,50898
Mundus,50898
modal verb,50898
lucent,50898
parsing,50898
Risk perception,50898
intracranial hemorrhages,50898
Clinical Cancer Research,50898
Executive functioning,50898
Japanese literature,50898
Mabura,50898
India ink,50898
diffuse interstellar bands,50898
cadastral,50898
genetic mutation,50898
Hawaii,50898
GRAIL,50898
dodecyl acetate,50898
pseudonym,50898
lysosomal storage disease,50898
pars Descendens,50898
cochlear nerve,50898
Forceville,50898
cardiovascular medicine,50898
cholangiographic,50898
Mn2O3,50898
Falkland Islands,50898
Gauss-Seidel,50898
proxy measurements,50898
RAAB,50898
Traditional Chinese Medicine,50898
Chromatography,50898
straight river,50898
bond dissociation energies,50898
end-organ dysfunction,50898
Molybdenum,50898
region 1,50898
delayed sleep phase syndrome,50898
local regression,50898
centre-left,50898
inclusive fitness,50898
resonance-enhanced multiphoton ionization,50898
Higgs Boson,50898
Misattribution,50898
social facts,50898
crude oil,50898
matrix sites,50898
realized niche,50898
Visual perception,50898
pKa,50898
oxidative insertion,50898
Roswell Park Memorial Institute,50898
renal arteries,50898
error control,50898
microfibril,50898
gonadotropic,50898
pregnancy termination,50898
nitroimidazole,50898
Belize,50898
Rosenberg self-esteem scale,50898
Pseudobombax,50898
reduction mammoplasty,50898
B-4,50898
Tyrrhenian Sea,50898
conserved quantity,50898
SU2,50898
niche construction,50898
jet stream,50898
fourier transformation,50898
doxycyclin,50898
Populus tremula,50898
geometric algebra,50898
platform independent,50898
organic agriculture,50898
sp1,50898
baryogenesis,50898
Cyberknife,50898
pancreatic mass,50898
Cre recombinase,50898
Coeliac Disease,50898
enculturation,50898
sedimentologic,50898
Patella,50898
Ivoclar Vivadent,50898
peat moss,50898
extended mind,50898
anterior communicating artery,50898
Bradykinin,50898
tertiary hospital,50898
orthogonalization,50898
G-type,50898
Resting metabolic rate,50898
common carrier,50898
endanger,50898
uncat,50898
autotransporter proteins,50898
Lincoln,50898
naso-,50898
piecewise-linear,50898
G-test,50898
myocardial scarring,50898
European flounder,50898
center region,50898
andrology,50898
buccal mucosa,50898
lossless compression,50898
Lennard-Jones potential,50898
urban density,50898
3-methylcholanthrene,50898
municipal council,50898
potassium dichromate,50898
mycolic acids,50898
atomic orbital,50898
angiosperms,50898
hyporeflexia,50898
Theo van Gogh,50898
alpha-granules,50898
far-ultraviolet,50898
self-organising systems,50898
nuclear DNA,50898
Angina,50898
Countermovement,50898
Whole Earth,50898
GRACE,50898
malononitrile,50898
corticioid fungi,50898
Cassidy,50898
defensins,50898
Research Framework,50898
CD6,50898
equiangular spiral,50898
vertigo,50898
IED,50898
standardised test,50898
ECR group,50898
Wechsler Adult Intelligence Scale,50898
aluminum oxide,50898
variable cost,50898
Earth Observing System,50898
sulfate reducing bacteria,50898
IMesH,50898
central heating,50898
chronic HBV,50898
Contact Group,50898
Gaussia princeps,50898
PR interval,50898
poverty reduction,50898
transformational learning,50898
estimator bias,50898
tissue grafting,50898
electronic density,50898
A 8,50898
penile erection,50898
eco-efficiency,50898
Jmol,50898
virtual photons,50898
obstructed labor,50898
beta distribution,50898
2-arachidonoylglycerol,50898
flat tops,50898
GE Healthcare,50898
hairy cell leukemia,50898
DTT,50898
Phenomenon,50898
Disruptive Behavior Disorders rating scale,50898
Monocotyledoneae,50898
Townsend,50898
bioluminescence resonance energy transfer,50898
hexacoordinate,50898
EU enlargement,50898
troilite,50898
autosomes,50898
finite difference method,50898
chronic traumatic encephalopathy (CTE),50898
If society,50898
biopolitics,50898
time reversal invariance,50898
birefringent,50898
Monooxygenase,50898
Wiskott-Aldrich syndrome,50898
decibel,50898
diphenylether,50898
stethoscope,50898
Arterial embolization,50898
omnipotent,50898
deduplication,50898
red fox,50898
wind stress,50898
functional electrical stimulation,50898
sociobiological,50898
extrapyramidal,50898
Reynolds number,50898
TOMM40,50898
Betz cells,50898
detached house,50898
reductive amination,50898
polymer brush,50898
Dutchbat,50898
ketoconazole,50898
phase detector,50898
Pessimism,50898
fresh gas flow,50898
Modularity,50898
Kathleen Norris,50898
Bagsvaerd,50898
semi-squat,50898
"Carlsbad, CA",50898
behavioral neuroscience,50898
tetrapyrrole,50898
adalah,50898
SARS-CoV,50898
squamous intraepithelial lesion,50898
microtia,50898
rangeland,50898
mobile app,50898
FLEC,50898
apical dendrite,50898
n-octane,50898
Feshbach resonance,50898
stereoregularity,50898
child behavior checklist,50898
apoptosome,50898
savannah,50898
Lung volumes,50898
cultural bias,50898
Chirp,50898
Longyearbyen,50898
ETH,50898
Quality control,50898
woodlouse,50898
monocular vision,50898
marine terrace,50898
data management system,50898
Scaler,50898
electrical measurements,50898
neotectonic,50898
Amikacin,50898
"Cordillera Oriental, Colombia",50898
free-radical,50898
cyclopentadiene,50898
tussock grass,50898
tracer gas,50898
25-Hydroxyvitamin D,50898
protonolysis,50898
15/50,50898
littoral,50898
load cell,50898
profenofos,50898
glycoprotein 100,50898
Convolutional Neural Network,50898
aplasia cutis congenita,50898
Willem Barents,50898
intermetallics,50898
ventricular system,50898
endosome,50898
Somatic cell,50898
Structural Equation Modeling (SEM),50898
Santander,50898
water purification,50898
complete active space perturbation theory,50898
social geography,50898
adrenodoxin reductase,50898
Risque,50898
Coccolithophore,50898
cranial nerve VI,50898
Ghana Health Service,50898
ceramidase,50898
GR 9,50898
CFQ,50898
Pleistocene megafauna,50898
mandibular corpus,50898
Carnoy,50898
Orius,50898
sociometer,50898
qualitative inquiry,50898
stable group,50898
mesenchymal cell,50898
aberrant crypt foci,50898
The delays,50898
The advice,50898
ressourcement,50898
Protein Kinase A,50898
stochastic processes,50898
Cre-loxP,50898
ecological psychology,50898
low-grade astrocytoma,50898
Radial velocity,50898
aortic bifurcation,50898
Sulcia muelleri,50898
BZ,50898
Salento,50898
Catarrhini,50898
Overburden,50898
safe sex,50898
Mechatronics,50898
bioeconomic,50898
ribonucleosides,50898
Hellenic arc,50898
superpotential,50898
Alna,50898
thin-shell,50898
kita,50898
mouthparts,50898
Tevfik Fikret,50898
antepartum hemorrhage,50898
Kluwer Academic Publishers,50898
iontophoretic,50898
Cambridge Mathematical Journal,50898
chemotype,50898
Bicuculline,50898
Tuffite,50898
The Relationship,50898
rotation period,50898
channel coupling,50898
Capsule Endoscopy,50898
neoschizomer,50898
Acute Myeloid Leukemia,50898
sympathetic nerve,50898
FUB,50898
solar zenith angle,50898
Mokken scale,50898
Tcirg1,50898
Sooglossidae,50898
dual x-ray absorptiometry,50898
hydrogenotrophic,50898
topological property,50898
Tomotherapy,50898
conformational analysis,50898
Columbia-,50898
Erica arborea,50898
polymeric chain,50898
biochemical recurrence,50898
biological diversity,50898
conformally invariant,50898
irremediable,50898
chemoselectivity,50898
microaggressions,50898
flywheel,50898
psychological trauma,50898
photomultiplier,50898
occupational healthcare,50898
gauge boson,50898
Polymerization,50898
agarose gel electrophoresis,50898
protein microarray,50898
Sick leave,50898
undressed,50898
square-planar,50898
communication disorder,50898
Procedural justice,50898
coulter counter,50898
Platichthys flesus,50898
Felidae,50898
Round Table,50898
psychotic depression,50898
triple metre,50898
emissivity,50898
adamantyl,50898
Populus,50898
stromal vascular fraction,50898
sensorium,50898
Xanthaciura,50898
Polysomnography,50898
tantalum,50898
GROningen,50898
osmolarity,50898
Guy Verhofstadt,50898
log-likelihood ratio,50898
X-Ray diffraction,50898
Soret band,50898
polymyxin,50898
acetylcysteine,50898
TAFF,50898
ultrafast X-ray,50898
counter-terrorism,50898
Milwaukee,50898
xerogel,50898
neonatal teeth,50898
cambium,50898
RPE65,50898
self-compatible,50898
Colorectal adenoma,50898
broken symmetry,50898
megajoule,50898
silent film,50898
editorial independence,50898
Ecospace,50898
cerebrum,50898
standard anatomical position,50898
self-replicating system,50898
brachioradialis,50898
Mantellidae,50898
agnostic,50898
genetic screen,50898
Processor sharing,50898
Quantitative proteomics,50898
working class,50898
character displacement,50898
Hartree,50898
intelligent design,50898
Nice,50898
European Alliance,50898
TCM,50898
thoracic aortic aneurysm,50898
transfer hydrogenation,50898
neural therapy,50898
mutually singular,50898
histone acetyltransferase (HAT),50898
cypermethrin,50898
Autonomic nervous system,50898
cathexis,50898
Guyana,50898
raphe nuclei,50898
electron spin,50898
Vegetation type,50898
T-Lymphocyte,50898
vitamin B 12,50898
echinenone,50898
Dionex,50898
Final diagnosis,50898
clogs,50898
marine connection,50898
14N,50898
HNO3,50898
subtilisin,50898
reduced temperature,50898
quasi-particle,50898
southern Ireland,50898
catechol O-methyltransferase,50898
Vulpes,50898
cytogeneticists,50898
differential centrifugation,50898
NGO,50898
nonalcoholic steatohepatitis,50898
chronological dating,50898
Bengalis,50898
museum,50898
lengthens,50898
matrix population models,50898
FIPV,50898
This family,50898
sneutrino,50898
Neurofibrillary tangles,50898
In-vivo,50898
Posttraumatic Stress Disorder (PTSD),50898
Inflammatory arthritis,50898
particle counter,50898
historical sociology,50898
Corticosteroid,50898
color center,50898
model elimination,50898
core 2,50898
Cox Proportional Hazards model,50898
extended x-ray absorption fine structure,50898
ADHD Rating Scale,50898
Fenoprofen,50898
Anthyllis cytisoides,50898
nitric oxide donors,50898
L-cysteine,50898
PDH,50898
N-linked glycan,50898
streptokinase,50898
impala,50898
lifestyle coach,50898
volume status,50898
environment protection,50898
ADAMTSL1,50898
relative degree,50898
bilins,50898
VEGFRs,50898
diffuse intravascular coagulation,50898
smooth manifold,50898
declarative programming,50898
polyhedra,50898
Larix decidua,50898
Crithidia fasciculata,50898
type IA,50898
EMPOWER,50898
ribonuclease A,50898
Z-body,50898
concept map,50898
flutamide,50898
beta-secretase,50898
alloantigen,50898
urogenital system,50898
radiant energy,50898
Dropbox,50898
sodium thiosulfate,50898
chromite,50898
relationship forming,50898
asymmetric unit,50898
methylchloroisothiazolinone,50898
affect dysregulation,50898
Respiratory infection,50898
cryo-electron microscopic,50898
estuarine circulation,50898
dehydrogenated,50898
FT-IR,50898
tetramethylammonium hydroxide,50898
cytopenias,50898
hypostome,50898
Higgs sector,50898
appoggiatura,50898
reverse transcribed,50898
Liebig,50898
navicular,50898
DNA methyltransferase,50898
jihadi,50898
bioluminescent,50898
triple-blind,50898
Baquet,50898
Central obesity,50898
CyberMed,50898
polypectomy,50898
Sn7,50898
Serous,50898
antiferromagnetism,50898
specific power,50898
mL-1,50898
double-blind experiment,50898
RecA,50898
iodomethane,50898
Social cohesion,50898
LUCID,50898
precession electron diffraction,50898
truncation error,50898
H-R diagram,50898
Neotropics,50898
waste reduction,50898
bioaccumulated,50898
ABC transporter,50898
survival models,50898
geriatrician,50898
Adriatic plate,50898
iron(III),50898
topological charge,50898
induction period,50898
Twenty hours,50898
regulatory T-lymphocytes,50898
exchange transfusions,50898
Lecce,50898
Michx.,50898
cell surface molecule,50898
SDSs,50898
gravitational acceleration,50898
Tobramycin,50898
targeted killing,50898
zinc protoporphyrin,50898
Smoothing,50898
Victor Turner,50898
triptans,50898
mycorrhizal fungi,50898
XPA,50898
liquid-liquid extraction,50898
immunological tolerance,50898
Atrioventricular septal defect,50898
passband,50898
projection operator,50898
epibatidine,50898
deltamethrin,50898
white ring,50898
normative ethics,50898
momentum space,50898
hermit,50898
Toulouse,50898
Enzyme assay,50898
granodiorite,50898
Asian options,50898
Senegal,50898
eosinophilic vasculitis,50898
circumsporozoite protein,50898
ADME,50898
Marcus theory,50898
conventional superconductor,50898
Arturo Ambrosio,50898
HMDB,50898
sterigmatocystin,50898
immunoperoxidase,50898
complex carbohydrate,50898
black silicon,50898
creative city,50898
Aconcagua,50898
behavioral sensitization,50898
tissue factor,50898
Agromyzidae,50898
Alpha diversity,50898
alter ego,50898
FLN,50898
p300/CBP,50898
theophylline,50898
FMRI,50898
binary image,50898
supercritical water,50898
trifluoroethanol,50898
social theory,50898
Republican,50898
person-year,50898
Cantilever,50898
random forest,50898
time-reversal symmetry,50898
algebraic structure,50898
complement-dependent cytotoxicity,50898
Advanced Trauma Life Support,50898
DRI,50898
omnipotence,50898
IYD,50898
streptodornase,50898
Hedin,50898
Vulvar cancer,50898
WordNet,50898
Mythimna separata,50898
Biostatistics,50898
ganirelix,50898
National Multiple Sclerosis Society,50898
structural level,50898
Plasma glucose,50898
geo-engineering,50898
terpenoid,50898
Lagrange point,50898
kohm,50898
FOX,50898
papilla,50898
mathematical proof,50898
Schirmer,50898
conservation tillage,50898
topoisomerase inhibitor,50898
recall rate,50898
Moscow,50898
force feedback,50898
photoplethysmogram,50898
echosounder,50898
visco-elastic,50898
Pokorny,50898
hexacyanoferrate(III),50898
streak camera,50898
Ceboidea,50898
Extracellular matrix,50898
greenschist facies,50898
self-pollination,50898
upper critical field,50898
Procalcitonin,50898
Stanley Foundation,50898
Pareto distribution,50898
Great Divergence,50898
Islamic extremist,50898
Bible Belt,50898
magnetic dipole-dipole interaction,50898
nigrostriatal,50898
pragmatic clinical trial,50898
brachialis,50898
Ningxia,50898
Mendelian Randomization,50898
HLA-DO,50898
coronary care unit,50898
Laerdal Medical,50898
Volkov,50898
hyperammonaemia,50898
comparative statics,50898
High performance liquid chromatography,50898
Spitsbergen,50898
methadone maintenance treatment,50898
photodegradation,50898
Right heart failure,50898
Grand Unified Theories,50898
Modular Ocean Model,50898
M. pygmaea,50898
Boolean model,50898
IKAROS,50898
Indirect calorimetry,50898
breath-hold,50898
chromosome aberrations,50898
interdecile range,50898
The avalanches,50898
Chiang Mai,50898
null hypotheses,50898
exempla,50898
Nanjing,50898
Iridium,50898
geometric rate,50898
hereditary hemochromatosis,50898
micromixer,50898
Ecopath,50898
nitrogen inversion,50898
invariant theory,50898
Eyes Test,50898
habitat loss,50898
sustainable energy,50898
upper 10,50898
segmented regression,50898
A deeper understanding,50898
Haiyan,50898
Alfisols,50898
cox-2 inhibitor,50898
magnitude condition,50898
FSSC,50898
aggiornamento,50898
symmetric group,50898
finite impulse response,50898
Azathioprine,50898
eutectic point,50898
hypabyssal,50898
Communist Academy,50898
Edomite,50898
Ixodes scapularis,50898
Buda Hills,50898
sampling distribution,50898
authoritarianism,50898
epicardium,50898
sharpshooter,50898
dosage form,50898
V20,50898
CYBB,50898
transposable element,50898
IGF-II,50898
random seed,50898
brain hypoxia,50898
conformal geometric algebra,50898
Sepharose,50898
density parameter,50898
modern healthcare,50898
antiprotozoal,50898
tonalite,50898
VEGF-D,50898
EA II,50898
Zumaia,50898
Si/Ge,50898
color grading,50898
step test,50898
Ahmet Hamdi Tanpinar,50898
recA,50898
Stenus,50898
M/M/1 queue,50898
HRH3,50898
11-deoxycortisol,50898
fast 5,50898
colourant,50898
fixative,50898
guanidinium chloride,50898
halomethane,50898
Xi'ning,50898
electroneurography,50898
Neutrino,50898
human target,50898
IL6ST,50898
Her2 negative,50898
I-bands,50898
Small Magellanic Cloud,50898
Acre,50898
camptothecin,50898
Electrical impedance tomography,50898
high peak,50898
deoxynucleotide,50898
peptone,50898
neuromuscular transmission,50898
Adult Attachment,50898
trismus,50898
chromophoric,50898
Alere,50898
pith,50898
ellipticals,50898
iron sulfur cluster,50898
diethylenetriamine,50898
Amenorrhoea,50898
Amphotericin B,50898
Eurasian lynx,50898
cyclophyllum,50898
alkynyl,50898
chromosome 13q34,50898
Smiles rearrangement,50898
anal penetration,50898
photic zone,50898
electrochromic,50898
furfurol,50898
Agouti,50898
CLEs,50898
overdraft,50898
Particle size distribution,50898
current sheet,50898
Albania,50898
B-L,50898
Medical Research Council (MRC),50898
homozygote,50898
interplanetary dust,50898
celibacy,50898
CMM,50898
economic surplus,50898
Blommersia,50898
Toxocara,50898
McGill Pain Questionnaire,50898
cefaclor,50898
Stavanger,50898
Medical history,50898
bacteriophytochrome,50898
sulfur hexafluoride,50898
microelectrode,50898
Ecosim,50898
diabetologist,50898
geometric invariant theory,50898
musculus biceps brachii,50898
capture-recapture,50898
baryon number,50898
Positron-emission tomography,50898
"Schmidt, G.",50898
Taft,50898
Google Docs,50898
Liver transplantation,50898
distributed algorithms,50898
BCD,50898
cell signalling,50898
IRGM,50898
cytochrome oxidase,50898
unilateral hearing loss,50898
Diversified technique,50898
Geneva Convention,50898
Coleoptera,50898
antigen-presenting cell,50898
Young Mania Rating Scale,50898
platelet activating factor,50898
herding,50898
AP endonuclease,50898
extended Kalman filter,50898
Microhylidae,50898
reverse cholesterol transport,50898
COX-2 inhibitor,50898
hermeneutic,50898
Rydberg formula,50898
zero-point energy,50898
heroin-assisted treatment,50898
45 degrees N,50898
coiled coil,50898
Michel Foucault,50898
old-growth forest,50898
Bimatoprost,50898
snow fall,50898
Walton,50898
embryonic cell,50898
resolution 1250,50898
elastic limit,50898
Pulse wave velocity,50898
unsaturated fat,50898
caliper,50898
cognitive linguistic,50898
ACOG,50898
o-quinones,50898
Oleh,50898
coronal plane,50898
Anastomosis,50898
oversampling,50898
Homalodisca,50898
endocardium,50898
pleomorphism,50898
moral community,50898
imipramine,50898
global anomalies,50898
DECIPHER,50898
Oppia,50898
aplasia,50898
fault tolerance,50898
ventricular arrhythmia,50898
metacarpophalangeal,50898
melanogenesis,50898
bloodletting,50898
Cerebral palsy,50898
L-carnitine,50898
Fermi resonance,50898
dienestrol,50898
coxib,50898
ionotropic,50898
surface tension,50898
Coccolithus,50898
Taylor rule,50898
plug flow reactors,50898
Pharmacia,50898
crater lake,50898
Basophilia,50898
Modified Rankin Scale,50898
SEC16B,50898
blue rubber bleb nevus syndrome,50898
cardiac examination,50898
association constant,50898
volume contraction,50898
fenvalerate,50898
New World,50898
endoskeletal,50898
Molien,50898
MLA,50898
cerebrovascular disorders,50898
wage-price spiral,50898
Cimic,50898
perfect target,50898
capitula,50898
magnetometry,50898
Argonne,50898
lateral root,50898
PEX6,50898
anti-Xa activity,50898
voltage gated sodium channel,50898
Middle Atlas,50898
interstellar reddening,50898
Allele frequency,50898
VAMP1,50898
rower,50898
excluded volume,50898
14C,50898
Hindustani,50898
simplicial,50898
standard cell,50898
poly(dimethylsiloxane),50898
corporate responsibility,50898
Performance status,50898
stochastic geometry,50898
core-periphery,50898
BLR,50898
blood film,50898
Hoeven,50898
zygomycosis,50898
Primary ventricular fibrillation,50898
biocide,50898
Catalytic combustion,50898
Idiopathic,50898
UBC,50898
discouraged worker,50898
Pittosporum,50898
tennis elbow,50898
restriction endonucleases,50898
orthopedics,50898
chlorobenzene,50898
solar activity,50898
TGFBI,50898
Carbon dioxide,50898
Complement activation,50898
MEIJER,50898
pelvic floor dysfunction,50898
Synovial fluid,50898
"2,6-dimethylphenol",50898
fluctuation-dissipation theorem,50898
semiconductor laser,50898
criminal profiles,34744
community resilience,50898
The cafe,50898
Dysthymia,50898
CLN3,50898
Chironomidae,50898
ray-tracing,50898
The Informant,50898
tabor,50898
dental pulp,50898
Nucleoprotein,50898
ultraviolet-visible spectroscopy,50898
Adenoid cystic carcinoma,50898
Type I diabetic,50898
Azotobacter vinelandii,50898
ankle replacement,50898
Tricalcium phosphate,50898
integer lattice,50898
The Hand,50898
Nikolai,50898
homeomorphism,50898
Hydrogenase,50898
unemployment insurance,50898
Acute myelogenous leukemia,50898
James Joyce,50898
Chlorhexidine,50898
equivariant maps,50898
assessment center,50898
Pertussis toxin,50898
Human Genome Project,50898
Rhodope,50898
feral,50898
irregular immigration,50898
diverticular disease,50898
Proteomics,50898
Porencephaly,50898
Major Depression Inventory,50898
Mineralocorticoid,50898
leflunomide,50898
Job rotation,50898
Shape analysis,50898
The REFLEX,50898
human services,50898
zinc(II) chloride,50898
Chlorophyll fluorescence,50898
Modernization theory,50898
Calcium channel,50898
The mantle,50898
computer-supported collaborative learning (CSCL),50898
conjugated estrogens,50898
Frequency domain,50898
Milheeze,50898
New Look,50898
LFF,50898
Minimal residual disease,50898
Cathodoluminescence,50898
intrinsic muscle,50898
Pieter Geyl,50898
Aliphatic,50898
scanning laser ophthalmoscopy,50898
Menthol,50898
Gal-3,50898
cargo aircraft,50898
vocal folds,50898
Stata,50898
Fucoxanthin,50898
crystalline lens,50898
Small cell lung cancer,50898
Luxembourg Income Study,50898
targeted drug delivery,50898
Visual search,50898
Hereditary hemochromatosis,50898
upper respiratory tract infection,50898
enamel matrix derivative,50898
eigenfrequencies,50898
halotolerant,50898
sulphonate,50898
fractional Brownian motion,50898
Oxindole,50898
imbibition,50898
histamine antagonists,50898
Gene-environment interaction,50898
tectonism,50898
rudist,50898
user control,50898
secondary structure prediction,50898
Infectious bursal disease virus,50898
Ureter,50898
Polish space,50898
Hippocampal sclerosis,50898
vocal tract,50898
scatterometry,50898
World-Wide Web,50898
Muscle cross-sectional area,50898
Schadenfreude,50898
Sedation,50898
metaanalysis,50898
differential game,50898
Medically unexplained symptoms,50898
Cytarabine,50898
Geobacteraceae,50898
hyperpolarizability,50898
polycyclic aromatic hydrocarbon,50898
radio frequency identification,50898
eigenfrequency,50898
Russian roulette,50898
Herbivory,50898
chromosome painting,50898
Overgrazing,50898
Breast-feeding,50898
Decision making,50898
Sertoli cell,50898
substance dependence,50898
anycast,50898
behavioral immune system,50898
Dermatophytosis,50898
lead generation,50898
Bone tissue,50898
psychiatric genetics,50898
clinical clerkships,50898
Subarachnoid hemorrhage,50898
camelid,50898
osteoma,50898
analytic space,50898
maxillary central incisor,50898
M15,50898
Chlamydophila pneumoniae,50898
tripartite motif,50898
Electric field,50898
PI3K/Akt/mTOR pathway,50898
copper oxychloride,50898
Noble gas,50898
zero-dimensional space,50898
higher plant,50898
Gaussian beam,50898
Burgundy,50898
nasal bone,50898
Arsenate,50898
orchidometer,50898
Paracoccus,50898
Mercaptobenzothiazole,50898
Tine,50898
Barremian,50898
Interpersonal relationships,50898
regular sequence,50898
Romantic period,50898
discrete event,50898
House dust mite,50898
orbital-free density functional theory,50898
First Person Shooter,50898
Self-determination,50898
Data & Knowledge Engineering,50898
oat beta-glucan,50898
recognition sequence,50898
offside,50898
CARD15,50898
precautionary principle,50898
transportation demand management,50898
mixed marriage,50898
Price discrimination,50898
Sustainable development,50898
RAAD,50898
Parenting style,50898
Attention Deficit Hyperactivity Disorder,50898
self-disclosure,50898
Propionibacterium acnes,50898
overexploitation,50898
age segregation,34911
Tectonic uplift,50898
Nitrite reductase,50898
juvenile court,50898
Bone healing,50898
Hypoxemia,50898
nonlinear operator,50898
Green fluorescent protein (GFP),50898
Rotenone,50898
bond angle,50898
ILM,50898
Thymus,50898
Vitamin A,50898
positive-definite,50898
interpersonal circumplex,50898
Bifurcation theory,50898
odontogenic,50898
Central nervous system (CNS),50898
MYH,50898
free jumping,50898
Balanced Scorecard,50898
middleware,50898
The Grip,50898
arrojadite,50898
Lax pair,50898
weakly closed,50898
PROLOG,50898
D-2-Hydroxyglutaric aciduria,50898
Sports medicine,50898
chronic health problem,50898
cw,50898
integro-differential equation,50898
arhinia,50898
spring snow,50898
confounding variable,50898
concept drift,50898
Monotone,50898
road tax,50898
SVG,50898
Yukawa theory,50898
optical switching,50898
Erythermalgia,50898
Electron paramagnetic resonance,50898
Petrological,50898
DHSS,50898
freestyle,50898
The assignment,50898
Polyethylene glycol,50898
bifocal,50898
serologic testing,50898
Brassicaceae,50898
Fractional flow reserve,50898
Metabolic control analysis,50898
photosynthetic reaction center,50898
citizens' jury,50898
Interpersonal Psychotherapy,50898
subculture,50898
atrial septum,50898
spectral theory,50898
Restrictive dermopathy,50898
hypoxia-inducible factor 1,50898
ferrous iron,50898
alpine tundra,50898
Alcohol septal ablation,50898
graph invariant,50898
HMG-CoA-reductase,50898
JLS,50898
semisynthetic,50898
bipedal,50898
Modem,50898
Komodo,50898
ski jumper,50898
hydroxyacid-oxoacid transhydrogenase,50898
minority-majority,50898
protein secondary structure,50898
mathematical programming,50898
Ossification,50898
pomegranate,50898
Golden Age,50898
Carpal tunnel syndrome,50898
Interaction energy,50898
passive resistance,50898
Adler,50898
subarachnoid haemorrhage,50898
normal incidence,50898
theism,50898
Grid cells,50898
rooted tree,50898
Hypophosphatasia,50898
social citizenship,50898
beta-ionone,50898
Life-line,50898
photoreceptor protein,50898
Cobol,50898
Hypertriglyceridemia,50898
Hypoxia,50898
splenic vein,50898
neural drive,50898
CD1d,50898
Osteopontin,50898
deep cut,50898
Video-assisted thoracoscopic surgery,50898
Agent-based simulation,50898
power grid,50898
Jackal,50898
Spanish influenza,50898
WONCA,50898
sex therapy,50898
Aequorea victoria,50898
Broken symmetry,50898
Angiosperms,50898
Aragonite,50898
joint stability,50898
numerical algorithm,50898
Buddhist-Christian,50898
Stanley decomposition,50898
Donk,50898
carpal tunnel,50898
active listening,50898
Born-Oppenheimer approximation,50898
empirical process,50898
Twiss,50898
Comparative Genomic Hybridization,50898
TGFB1,50898
manipulative therapy,50898
oncolytic virotherapy,50898
Radioimmunotherapy,50898
colour space,50898
Systems biology,50898
classification codes,50898
hellenistic,50898
Peer-to-Peer,50898
vibrational spectroscopic,50898
deliberate self-harm,50898
Sobel test,50898
Southern African Power Pool,50898
Corpus callosum,50898
anorectal malformations,50898
liquid modernity,50898
Sociometric status,50898
Irk,50898
estetrol,50898
rib cage,50898
metalloprotein,50898
Mannan-binding lectin,50898
Folate,50898
transcutaneous electrical nerve stimulation,50898
bancassurance,50898
emergent behavior,50898
Inquiry Learning,35060
Youth politics,50898
southern Thai,50898
visual culture,50898
2 young,50898
Deficit Irrigation,50898
Kuhl,50898
exponential family,50898
organotin,50898
12th rib,50898
Spondyloepiphyseal dysplasia,50898
GnRHR,50898
pseudorandom,50898
synthetic aperture radar (SAR),50898
Diatom,50898
Antifouling,50898
Hypercalciuria,50898
PLAG1,50898
Oueme River,50898
performance rating,50898
choline acetyltransferase,50898
carbamates,50898
spin transition,50898
Hypoxic pulmonary vasoconstriction,50898
public choice,50898
absolute convergence,50898
Austrian philosophy,50898
Wilcoxon test,50898
iButton,50898
Vascular plant,50898
Attachment Q-Sort,50898
anterior mediastinum,50898
Hypoxia-inducible factor,50898
Pulford,50898
guanine-cytosine,50898
polydentate,50898
monooxygenase,50898
real people,50898
heterocyclic compounds,50898
Erasure,50898
ITA,50898
chiral pool,50898
Active listening,50898
Pneumonectomy,50898
cancer cachexia,50898
rating agencies,50898
biopsychosocial model,50898
U-turn,50898
leiomyomatosis,50898
Asterella,50898
hot topic,50898
BOBO,50898
Frailty Index,50898
Transition management,50898
Dutch Warmblood,50898
testability,50898
Multifocal motor neuropathy,50898
The Concealed,50898
3 family,50898
reflection coefficient,50898
Decabromodiphenyl ether,50898
Ligurian Alps,50898
transference-focused psychotherapy,50898
Bjerknes,50898
Respiratory depression,50898
Ten percent,50898
Fluid overload,50898
Evolutionary psychology,50898
parton model,50898
fixed point property,50898
metabolic advantage,50898
Arthralgia,50898
Fifth International,50898
extracorporeal membrane oxygenation,50898
Cholinergic,50898
biological system,50898
child soldiers,50898
FFS,50898
Neuropilin,50898
instrumental action,50898
CMJ,50898
chikungunya,50898
Treadmill,50898
selective estrogen receptor modulator,50898
numerical method,50898
lacZ,50898
parecoxib,50898
memory T cells,50898
Posterior urethral valves,50898
drag-and-drop,50898
Flow velocity,50898
Interleukin-10,50898
IKK,50898
blue copper protein,50898
cystathionine beta-synthase,50898
geological timescale,50898
order picking,50898
breech position,50898
chestnut,50898
Thoracic duct,50898
Etna,50898
Phylloquinone,50898
vulvar intraepithelial neoplasia,50898
Nonunion,50898
"1,3-diaminopropane",50898
Light-harvesting complex,50898
syncopation,50898
short film,50898
Dimroth,50898
Nash bargaining solution,50898
Plain radiography,50898
Williams Syndrome,50898
acetabular component,50898
ileocolic,50898
e-commerce,50898
"Yorba Linda, CA",50898
epistemic beliefs,50898
intensive insulin therapy,50898
informal sector,50898
abamectin,50898
The Children,50898
NEs,50898
NoordNed,50898
hypersexual,50898
sine,50898
cell polarity,50898
early Earth,50898
canonical ensemble,50898
runway,50898
cardiogenic,50898
American Diabetes Association (ADA),50898
suicide bombing,50898
charge-transfer complex,50898
Stop signal,50898
Porphyria,50898
Calcineurin,50898
BDI-based,50898
knowledge domain,50898
house hunting,50898
Viscoelastic,50898
Roman military diploma,50898
Structural equation modeling (SEM),50898
GnT,50898
Palaeocene,50898
tautomerism,50898
PXE,50898
market impact,50898
Nitrite,50898
inductively coupled plasma,50898
multimodal interaction,50898
Interleukin-12,50898
Electrical cardioversion,50898
Structural Funds,50898
FIG,50898
mecA,50898
poplar,50898
knowledge-based system,50898
endotracheal tube,50898
Bending,50898
min system,50898
PUVA,50898
corpus cavernosum,50898
Leflunomide,50898
T-cell acute lymphoblastic leukemia,50898
furano,50898
radioimmunotherapy,50898
shell velocity,50898
Thin film,50898
contact type,50898
Levy process,50898
pallet,50898
LIMC,50898
CD99,50898
Energy Economics,50898
self-adjoint,50898
shadow price,50898
Mathematical modeling,50898
sediment yields,50898
free boundary problem,50898
Tacrolimus,50898
Lotka-Volterra,50898
Transcendence,50898
Java remote method invocation,50898
Interleukin 12,50898
Bodleian Library,50898
Stackelberg,50898
peptaibol,50898
Succinic semialdehyde dehydrogenase deficiency,50898
biological rhythms,50898
attention deficit hyperactive disorder,50898
Postpartum depression,50898
G protein coupled receptors,50898
Touch screen,50898
FOREX,50898
hydraulic head,50898
lung transplant,50898
nilpotent,50898
peritonea,50898
neuromuscular electrical stimulation,50898
TNM Classification,50898
calcitonin,50898
motor program,50898
isopropylamine,50898
WECT,50898
Tartrate-resistant acid phosphatase,50898
Visual impairment,50898
coordinatively unsaturated,50898
Yangtze River,50898
subtropics,50898
Intraocular pressure,50898
Romanticism,50898
Institutional review board,50898
Early Aptian,50898
mapserver,50898
zero-dimensional,50898
nondegenerate,50898
Iontophoresis,50898
stochastic game,50898
Mycobacterium tuberculosis complex,50898
priming studies,50898
Motor control,50898
mineral dust,50898
1/N expansion,50898
mycophenolate mofetil,50898
SWEBOK,50898
quadriceps femoris,50898
hypersomnolence,50898
ternary compound,50898
RSP,50898
Civil society,50898
carnitine-acylcarnitine translocase deficiency,50898
resonator,50898
hormesis,50898
Life School,50898
Desflurane,50898
sliding window protocol,50898
hibernating myocardium,50898
Alvin Plantinga,50898
Aromaticity,50898
heavy-water,50898
6-Thioguanine,50898
James,50898
Environmental quality,50898
dimension theory,50898
leader election,50898
wrist pain,50898
Fluorine-18,50898
Tatian,50898
Research framework,50898
raloxifene,50898
Cyclophosphamide,50898
Radziszewski reaction,50898
Solvent,50898
C1-inhibitor,50898
Sobolev space,50898
ventilator-associated pneumonia,50898
salmonellosis,50898
urolithiasis,50898
TQ,50898
Cervical screening,50898
KP,50898
BnF,50898
hook,50898
remifentanil,50898
Oncolytic viruses,50898
Kindergarten,50898
Galapagos,50898
rib,50898
Achondroplasia,50898
credit rating,50898
Upper extremity,50898
Esping-Andersen,50898
EFQM Excellence Model,50898
common-pool resource,50898
abdominal cavity,50898
evolutionary computing,50898
Subsets,50898
Transcriptomics,50898
computer-mediated communication,50898
Derrida,50898
Endostatin,50898
Photolysis,50898
Northern Irish,50898
Web application,50898
Agrostis stolonifera,50898
magnetic dipole,50898
Aby Warburg,50898
fast heart rate,50898
enhancer trap,50898
Follicular dendritic cells,50898
disruptive behavior disorders,50898
Laquinimod,50898
Christian democracy,50898
invariant subspace,50898
phenyl azide,50898
archaeozoology,50898
Immune complex,50898
Formaldehyde,50898
tenor,50898
Focal adhesion kinase (FAK),50898
macrocyclization,50898
TWI,50898
numerical computation,50898
Organelle,50898
Antipsychotic,50898
R&R,50898
positive reappraisal,50898
Manual handling,50898
crystalline eye lens,50898
Alfalfa mosaic virus,50898
continental collision,50898
nervous tissue,50898
exotic baryon,50898
local economic development,50898
Sport psychology,50898
anaphoric references,50898
Trisomy,50898
oligochaete,50898
indwelling,50898
encopresis,50898
Pascual,50898
multiple birth,50898
Alexithymia,50898
Eric van Douwen,50898
Anglican,50898
N-oxide,50898
Short Message Service (SMS),50898
SPMD,50898
routing policy,50898
Staudinger,50898
WBA,50898
Nodular regenerative hyperplasia,50898
Germanic languages,50898
peripheral vision,50898
Growth failure,50898
IncA,50898
Nucleophilic substitution,50898
cognitive pretesting,50898
credit-rating agencies,50898
Coinfection,50898
Cervical lymph nodes,50898
workaholism,50898
Thiobacillus,50898
American Medical Association,50898
Autosomal dominant polycystic kidney disease,50898
Oligodendrocytes,50898
Integrable systems,50898
tricky business,35407
Niers,50898
Sexual conflict,50898
circular polarization,50898
Carlsberg,50898
J-coupling,50898
Liver biopsies,50898
spinal column,50898
pcam,50898
Opacities,50898
Social anxiety,50898
anterior thalamic nuclei,50898
interlobular arteries,50898
frequency spectrum,50898
isotopic mass,50898
SJ,50898
off-licence,50898
coincidence point,50898
E48,50898
autoinducer-2,50898
FOXP1,50898
Dorsiflexion,50898
TNFR2,50898
posterior parietal,50898
skew-symmetric,50898
MT2,50898
MINT,50898
doramectin,50898
HIF-1alpha,50898
sublanguage,50898
full moon,50898
difluoroethane,50898
adiabatic approximation,50898
dignified death,50898
nonlinear complementarity problem,50898
nave,50898
Canis,50898
Missouri,50898
Rb-Sr,50898
IgG2b,50898
Digit span,50898
diagenetically,50898
asymptotically consistent,50898
North-Holland,50898
hydrosol,50898
diopter,50898
3D-structure,50898
factor endowments,50898
subcatchment,50898
Valle,50898
A163,50898
macroalbuminuria,50898
Antirrhinum majus,50898
redox reaction,50898
FACT,50898
hanging wall,50898
PBSC,50898
Cancer registry,50898
Mean airway pressure,50898
red clover,50898
orthodox Christian,50898
endonucleases,50898
German idealism,50898
optical feedback,50898
bone cement,50898
alpha-blocking,50898
Technological change,50898
Finite element analysis,50898
barc,50898
charophytes,50898
waist-to-height ratio,50898
lymph sacs,50898
bcd,50898
Encephalitis,50898
plain radiography,50898
buserelin,50898
ground-glass opacities,50898
sporangium,50898
PLTP,50898
Tampere,50898
Protonation,50898
Parkes Weber syndrome,50898
proteorhodopsin,50898
FA-1,50898
EDER,50898
Cebes,50898
restrictive lung disease,50898
sporulation,50898
AdoMet,50898
Kauai Channel,50898
statistician,50898
Q10,50898
quorums,50898
penetration test,50898
Molinia caerulea,50898
GTPase-activating protein,50898
Palestinian Arab,50898
opioid dependence,50898
carboxy-terminal domain,50898
ODE,50898
crosscorrelation,50898
nuclear medicine physician,50898
electrostatics,50898
Relative survival,50898
Free Air CO2 Enrichment,50898
NAPQI,50898
E10,50898
marly,50898
pericardiocentesis,50898
DQ2.5,50898
dermatophytosis,50898
Virtual Laboratory,50898
power spectral density,50898
summer days,50898
Arnhem,50898
topological group,50898
PTHR1,50898
isoscalar,50898
infant respiratory distress syndrome,50898
topicalization,50898
mouth feel,50898
platinum-containing chemotherapy,50898
illicit drug users,50898
bivariate analysis,50898
Rothko,50898
Fourier limit,50898
transition management,50898
xanthan,50898
myelopoiesis,50898
Cochlearia,50898
Boussinesq approximation,50898
early summer,50898
DDT,50898
phytosociological,50898
methoxsalen,50898
Self-diffusion,50898
CRM1,50898
GPL,50898
actinic keratosis,50898
ozone depletion,50898
TOS,50898
SIMI,50898
J Pain,50898
dravite,50898
GBR 12909,50898
Craniosynostosis,50898
Rasch analysis,50898
P14,50898
dura mater,50898
Brain stem,50898
seasonal depression,50898
pseudopregnancy,50898
supply-and-demand,50898
cardiac catheterisation,50898
DIABLO,50898
CD2AP,50898
carcinomatous meningitis,50898
societal benefit areas,50898
haemorrhagic stroke,50898
mesenteric artery occlusion,50898
real gas,50898
Keratin,50898
CAPM,50898
219 days,50898
Androgen,50898
pentraxins,50898
pairwise comparison,50898
VRR,50898
relative standard error,50898
LAMP2,50898
methimepip,50898
xbc,50898
tonometer,50898
matrix-assisted laser desorption ionization,50898
radicle,50898
alpha-aminoadipic,50898
hot plate,50898
PS1,50898
Krebs cycle,50898
microstimulation,50898
Diverticulosis,50898
peat bog,50898
ISP,50898
Joint Implementation,50898
pressure sore,50898
Thirst,50898
dys,50898
DFV,50898
nonanal,50898
anti-nociceptive,50898
spinal fusion,50898
HL60,50898
Neurogenesis,50898
self-phase modulation,50898
determinative,50898
HIV Dementia,50898
monoterpene hydrocarbons,50898
Kazakhstan,50898
perinucleolar,50898
hepatoblastoma,50898
biomechanical factors,50898
thoracic duct,50898
Sagittaria,50898
Hessian matrix,50898
YY1,50898
tetrodotoxin,50898
Indirect immunofluorescence,50898
nanoporous material,50898
OSCE,50898
spinal epidural hematoma,50898
joint inflammation,50898
vinyl cation,50898
Hubble Space Telescope,50898
Damping,50898
Liver injury,50898
radionuclide,50898
HTTP,50898
URTI,50898
C-23,50898
Edman degradation,50898
Komodo National Park,50898
Ephedra intermedia,50898
HGF,50898
austral winter,50898
suppression subtractive hybridization,50898
setae,50898
CEE,50898
Discriminant,50898
biologic therapy,50898
VLA-4,50898
Coping With,50898
rostral ventromedial medulla,50898
cobalt chloride,50898
laminopathy,50898
Norman,50898
propagation velocity,50898
categorical data analysis,50898
sediment trap,50898
Serpin,50898
lignan,50898
Supra,50898
neuraminidase,50898
megahertz,50898
Aquitaine Basin,50898
prothrombin G20210A,50898
fused silica,50898
cachectic,50898
limonene,50898
FANCL,50898
unschooling,50898
expressed sequence tags,50898
desulfation,50898
depolymerization,50898
oligodendroglia,50898
butene,50898
complete group,50898
homophobia,50898
pyrenes,50898
high-pass,50898
RGS2,50898
Ten months,50898
triphenyltin,50898
collagen vascular disease,50898
diatomite,50898
melorheostosis,50898
GnRH deficiency,50898
gestodene,50898
Evans,50898
Westport,50898
dribbling,50898
chromosome 7,50898
synergist,50898
Plio-Pleistocene,50898
The storage,50898
Bitewing,50898
KH2PO4,50898
The abstinence,50898
daunomycin,50898
Essential oil,50898
variance reduction,50898
surface energy,50898
quercitrin,50898
formal specification,50898
Charles,50898
left inferior prefrontal cortex,50898
T-29,50898
pope Eugenius IV,50898
Ephedra distachya,50898
aminoguanidine,50898
subluxation,50898
FANCB,50898
dollar,50898
VVS,50898
1-methylindole,50898
fusicoccin,50898
fluorapatite,50898
TeO2,50898
trans-Neptunian object,50898
extensor hallucis longus,50898
aseptically,50898
METEOSAT,50898
W128,50898
elementary step,50898
molecular resonance,50898
non-benzodiazepine,50898
Rutherford backscattering spectrometry,50898
CTS,50898
bioassay-directed fractionation,50898
invertible matrices,50898
ballast,50898
3i,50898
earache,50898
Peptostreptococcus micros,50898
mutation load,50898
NFkB,50898
pro-oxidant,50898
debrided,50898
uniprotkb,50898
zonular,50898
mucopolysaccharides,50898
immunomagnetic separation,50898
Inhibin B,50898
Dynamic mechanical analysis,50898
angular acceleration,50898
Digestion,50898
GDF9,50898
ZAP70,50898
Von Frey Hair,50898
BBC,50898
multi-level selection,50898
autoregressive model,50898
modal auxiliaries,50898
stray light,50898
broad group,50898
Galapagos Islands,50898
arthrography,50898
vldlr,50898
hemiacetal,50898
World Trade Organisation,50898
dual energy x-ray absorptiometry,50898
jerk,50898
phosphene,50898
SDDs,50898
hydrogen fluoride,50898
cetrorelix,50898
settling velocity,50898
Afro-Caribbean,50898
pokeweed mitogen,50898
flume,50898
nosylate,50898
Skepticism,50898
Hegel,50898
methyl bromide,50898
scattering amplitude,50898
Knoevenagel condensation,50898
subphrenic,50898
VCSEL,50898
oriP,50898
datalog,50898
5-MTHF,50898
fasciotomy,50898
Maxwell model,50898
Limnatis,50898
SMDs,50898
Busan,50898
B93,50898
hippocampus proper,50898
carboxypeptidase B,50898
high-resolution computed tomography,50898
Harpagophytum,50898
Apolipoprotein B,50898
Stereotactic radiosurgery,50898
acute-phase proteins,50898
S-21,50898
Lanczos,50898
choriocarcinoma,50898
asthenosphere,50898
JOELib,50898
Praeger,50898
8-OH-DPAT,50898
BODE,50898
transmembrane domain,50898
Tiam1,50898
Thellungiella,50898
semidominant,50898
dipolar relaxation,50898
lying awake,50898
TK2,50898
hygienist,50898
silanization,50898
muonium,50898
cutpoint,50898
hematoma,50898
axial axis,50898
RLQ,50898
C-20,50898
WTA,50898
terpinen-4-ol,50898
haemoglobinopathies,50898
VSL#3,50898
dipyridamole,50898
ESTs,50898
hyperammonemia,50898
System III,50898
facial motor nucleus,50898
GTE,50898
hyperesthesia,50898
reversed-phase chromatography,50898
TRAF2,50898
branching process,50898
Hum Mol Genet,50898
FANCC,50898
fumarase,50898
menorrhagia,50898
DigA,50898
tertiary sector,50898
Monteverde,50898
optic lobe,50898
depositional environment,50898
Schoorl,50898
GTPgammaS,50898
nuclear export signals,50898
memory span,50898
TENS,50898
glial scar,50898
N45,50898
IC4,50898
Stokes shift,50898
PTPRH,50898
Nunney,50898
Plantinga,50898
TFAM,50898
granal,50898
SIRPa,50898
A-share,50898
Tengiz,50898
Barendrecht,50898
Baudelaire,50898
natural linewidth,50898
medical sociology,50898
p300,50898
channel pattern,50898
aura symptoms,50898
ePTFE,50898
Cardiorespiratory fitness,50898
self-protein,50898
nonlinear optimization,50898
intracranial hypertension,50898
Solid-state NMR,50898
logistic curve,50898
orf2,50898
anti-hyperalgesic,50898
teenage pregnancy,50898
intraplate deformation,50898
Molecular orbital,50898
TTX,50898
steric exclusion,50898
salt-marsh,50898
Albian,50898
iff,50898
feature detection,50898
afferent arterioles,50898
sulfur cycle,50898
parameter plane,50898
skin flora,50898
environmental gradient,50898
CLCN5,50898
palladium chloride,50898
young boys,50898
nickelocene,50898
Breit,50898
NAB,50898
crystal waters,50898
PTGS2,50898
witch,50898
biosynthetically,50898
Static analysis,50898
geriatric depression scale,50898
cervical segment,50898
Gallstone,50898
HER1,50898
CD81,50898
Christian denomination,50898
MVP,50898
The fear,50898
Etoposide,50898
chronic care,50898
downfield,50898
trimellitic anhydride,50898
KR,50898
RAD51,50898
Rating scale,50898
mayonnaise,50898
granulocyte macrophage-colony stimulating factor,50898
elimination period,50898
arctic vegetation,50898
mitoK(ATP),50898
Japanese-American,50898
anti-IL-6,50898
Royal Meteorological Society,50898
endopeptidase,50898
Catalonian,50898
BRA,50898
sterically hinder,50898
buoy,50898
business efficiency,50898
phototoxic,50898
soft x-ray,50898
aponeurotic,50898
GTF2IRD1,50898
continental rifting,50898
charge transfer complexes,50898
laser surgery,50898
consistent estimator,50898
isolated vitamin E deficiency,50898
lubricant,50898
ion-exchange resin,50898
IPL,50898
Y-27632,50898
liquid biopsies,50898
steric repulsion,50898
quino,50898
PI3K/akt pathway,50898
anachronism,50898
tumour heterogeneity,50898
PAS stain,50898
Putna,50898
Oahu,50898
RTA,50898
Luciferase,50898
Takayasu,50898
The PAS,50898
tectonostratigraphic,50898
F50,50898
medroxyprogesterone acetate,50898
infralimbic cortex,50898
transition economy,50898
late glacial,50898
marginal probability distribution,50898
GLU,50898
e-Science,50898
denaturant,50898
FIM,50898
artificial lung,50898
facial motoneurons,50898
ACIS,50898
flow chart,50898
BamHI,50898
copper sulphate,50898
point particle,50898
pentagonal bipyramidal,50898
centromeres,50898
transition dipole moment,50898
genetic map,50898
chamfer,50898
taw,50898
cyproterone acetate,50898
monoterpene,50898
Regioselective,50898
peak expiratory flow rate,50898
TNFR1,50898
SNAREs,50898
Kauai,50898
symplectic matrices,50898
custard,50898
Basal metabolic rate,50898
WFNS,50898
ZEBRA,50898
Volendam,50898
glutenin,50898
ADP-ribosylation,50898
anorectic,50898
slow hand,50898
root nodules,50898
petagram,50898
spin canting,50898
RET,50898
Swern oxidation,50898
metabolic engineering,50898
The final decision,50898
environmental factor,50898
mesylate,50898
PTS2,50898
Stiffness,50898
exocytotic,50898
beta-naphthoflavone,50898
CDC42,50898
Cambridge Neuropsychological Test Automated Battery,50898
nitration,50898
Anthracene,50898
orienting response,50898
Babylonian,50898
Global Warming,50898
BMPR1A,50898
proactive interference,50898
Prolene,50898
vital capacity,50898
Brain Damage,50898
direct manipulation,50898
MCAS,50898
coven,50898
krypton,50898
sexually transmitted diseases,50898
Dragonja river,50898
finite field,50898
Osteoid,50898
Leganes,50898
demethyl,50898
Symbolism,50898
Thornton,50898
site-specific recombination,50898
bromodeoxyuridine,50898
photopigment,50898
cation exchange capacity,50898
Biomechanics,50898
SVP,50898
Ab negative,50898
recurrence relation,50898
epiphysis,50898
vaccination schedule,50898
HTP,50898
consistent estimators,50898
open shell,50898
swollen joint,50898
early start,50898
elaborative encoding,50898
mutagen,50898
A77,50898
Anti-IL-6,50898
turf,50898
basolateral amygdala,50898
sialidase,50898
cladribine,50898
disulphide bond,50898
semivariance,50898
cytostatics,50898
Valenzano,50898
microwave transmission,50898
idose,50898
true positive,50898
pseudotyping,50898
Depersonalization,50898
Radiosurgery,50898
Rad51,50898
Selective attention,50898
centrifugal partition chromatography,50898
Arterial hypertension,50898
rf,50898
trioxsalen,50898
racemate,50898
Scandes,50898
Nod1,50898
NUTS-2 regions,50898
serine/threonine kinase,50898
GATA6,50898
Zaanstad,50898
eIf2B,50898
OLN,50898
CIT,50898
BP2,50898
competitive exclusion,50898
Matrigel,50898
brachycephaly,50898
efferent arterioles,50898
AVED,50898
linkage mapping,50898
sox,50898
TPSA,50898
shear force,50898
IRMM,50898
RAC,50898
controlled ovarian hyperstimulation,50898
Hip Score,50898
LGA,50898
cytologically,50898
overbite,50898
sociolinguistic,50898
GRK2,50898
cumulative probability distribution,50898
Dat,50898
fundus photography,50898
TMN,50898
Bulinus,50898
single-scattering albedo,50898
Schouten,50898
Benzyl benzoate,50898
Billingham,50898
Philips electronics,50898
flow injection analysis,50898
existence proof,50898
Spatial planning,50898
mGluR8,50898
microcrystalline,50898
ovariectomized,50898
concanavalin A,50898
Ethanolamine,50898
nutrient density,50898
MarianaS,50898
intensive-care unit,50898
carbonyl reduction,50898
infusion reaction,50898
Gua,50898
borate,50898
yield stress,50898
Seychelles,50898
Child PTSD Symptom Scale,50898
Powernext,50898
gadopentetate,50898
electron-pair bond,50898
Wechsler Memory Scale,50898
reverse-transcribed,50898
Eretria,50898
Spatial memory,50898
input method,50898
anomalous dimension,50898
cytokine storm,50898
price discovery,50898
antiaromatic,50898
Great Dyke,50898
Maxwell distribution,50898
ZMPSTE24,50898
gingival sulcus,50898
myc family,50898
crystallite,50898
"1,25-Dihydroxyvitamin D3",50898
desulfurisation,50898
correlation length,50898
central veins,50898
organopalladium,50898
Karpathos,50898
Franciscan,50898
ICAM,50898
Global analysis,50898
LMP1,50898
mayfly,50898
scan 7,50898
canaries,50898
Magnetic resonance angiography,50898
CaMKII,50898
histamine H4 receptor,50898
Wigglesworth,50898
dermaseptin,50898
"2,4,6-tribromophenol",50898
14-3-3 beta,50898
pulmonary endarterectomy,50898
growth plate,50898
Buprenorphine,50898
Madeira,50898
Zimbabwe Craton,50898
T47,50898
delta power,50898
Respite care,50898
ADAMTS-13,50898
benzopyran,50898
cosine,50898
Hillegersberg,50898
dialyzer.,50898
Trypticase soy agar,50898
MVO,50898
ground-glass opacity,50898
olfactory bulbs,50898
Rho-kinase,50898
glial cell line-derived neurotrophic factor,50898
Golgi tendon organs,50898
ilioinguinal,50898
desipramine,50898
UV-radiation,50898
gametophyte,50898
gelatin sponge,50898
field triage,50898
Lidocaine,50898
lateral incisor,50898
STX1A,50898
petrography,50898
B220,50898
KERN,50898
amidation,50898
PFK,50898
acetaldehyde,50898
KCNJ11,50898
tauopathies,50898
alpha-helices,50898
Oosterhout,50898
sandblasting,50898
Prevotella intermedia,50898
optical isomers,50898
lumbosacral joint,50898
benzyl salicylate,50898
veno-occlusive disease,50898
GNAI3,50898
Z configuration,50898
Hydrogen,50898
stress ulcer,50898
Reductive amination,50898
HOX,50898
mass-wasting,50898
tartrate,50898
hexanoate,50898
NCAM,50898
Tezosentan,50898
desalination,50898
mass-spring-damper model,50898
EP3,50898
peroxodisulfate,50898
Excision,50898
releasing agent,50898
Karnofsky score,50898
Pmel17,50898
Skin biopsy,50898
thymic carcinoma,50898
mast,50898
genetic polymorphism,50898
Vourinos,50898
hypervalent bonding,50898
anlage,50898
buprenorphine,50898
ethinylestradiol,50898
Ornstein-Uhlenbeck process,50898
Raf-1,50898
anoxia,50898
dessert,50898
statistical efficiency,50898
a61,50898
drug cues,50898
shrift,50898
tropical sprue,50898
Cachexia,50898
radio-frequency,50898
neurotic disorders,50898
enterohepatic recycling,50898
orexigenic,50898
clinical neurophysiologists,50898
stridor,50898
dermatofibrosarcoma protuberans,50898
photoelectron spectrum,50898
pronoun,50898
BARR,50898
INCENP,50898
thiopental,50898
Sema3A,50898
zonula occludens,50898
song system,50898
CLN,50898
synucleinopathies,50898
TNF-receptor,50898
colonic cancer,50898
doublecortin,50898
Chemical shift,50898
CdCl2,50898
beta reduction,50898
rofecoxib,50898
ATIC,50898
gas-liquid chromatography,50898
diverticulosis,50898
non-equilibrium dynamics,50898
chemical imaging,50898
synovia,50898
periodic acid-Schiff stain,50898
GDNF,50898
chewing gum,50898
SWOT analysis,50898
coset,50898
femoral arteries,50898
halocline,50898
leptospires,50898
periplasm,50898
cross-correlation coefficient,50898
FeMoco,50898
ketorolac,50898
dorsal horn,50898
Antiferromagnetic,50898
ITCZ,50898
organic aciduria,50898
memory reconsolidation,50898
syntaxin 1,50898
RPL,50898
myc,50898
Jordan,50898
meloxicam,50898
TNM staging,50898
thymomas,50898
Minjiang,50898
hydrodesulphurization,50898
protein S deficiency,50898
cytopathic,50898
Paroxetine,50898
ith,50898
Molokai,50898
Paramita,50898
W74,50898
detoxication,50898
MELAS,50898
mast cell stabilizer,50898
bipartite networks,50898
NK1.1,50898
chest trauma,50898
visual N1,50898
LCAC,50898
artificial ventilation,50898
petroleum,50898
LOI,50898
phosphomannomutase,50898
peroxiredoxin,50898
Shewanella,50898
haemodynamic response,50898
AZA,50898
child mortality,50898
ow,50898
acetabular,50898
Ulyanov,50898
abbot,50898
Carex flacca,50898
subclinical hyperthyroidism,50898
pantothenate kinase,50898
Src kinase,50898
ECMO,50898
local-density approximation,50898
galanthamine,50898
external fertilization,50898
diltiazem,50898
phycoerythrobilin,50898
LNCaP,50898
aldrin,50898
ketonuria,50898
German studies,50898
Exothermic,50898
cerebral hemorrhage,50898
oref,50898
ONO,50898
cigarette pack,50898
denitrifying bacteria,50898
Aleuria aurantia,50898
HLA-B62,50898
ocean current,50898
beta-actin,50898
A 59,50898
medicinal plant,50898
CDR3,50898
anomaly scan,50898
SIESTA,50898
urban heat island,50898
methylotrophic,50898
Shear strain,50898
AMV,50898
fluticasone,50898
phage,50898
gastroenterologist,50898
CROM,50898
efferent neurons,50898
Nazca,50898
Gleason score,50898
p38MAPK,50898
blind tests,50898
Gillespie,50898
American Medical Directors Association,50898
age standardised,50898
Monocyte,50898
C-Terminal,50898
foodweb,50898
Cohort studies,50898
internal oblique muscle,50898
Globigerinoides,50898
interior point,50898
Dioxin,50898
Bolnes,50898
factor 10,50898
MID1,50898
microculture,50898
biventricular pacemaker,50898
Single photon emission computed tomography,50898
IPAA,50898
battle,50898
G3BP2,50898
SD 10,50898
Brunellia,50898
lung biopsy,50898
mGluR4,50898
Nb2O5,50898
sulphate aerosols,50898
SOI,50898
meridians,50898
DNs,50898
cardiac myocyte,50898
EF1A,50898
body acceleration,50898
TNFA,50898
homophobic,50898
three-electron bond,50898
Plasmid,50898
lter,50898
A-shares,50898
Echinococcus multilocularis,50898
false discovery rate,50898
atom optics,50898
lipoma,50898
NSE,50898
Inhibin,50898
SRD5A2,50898
type I diabetic,50898
Fusobacterium nucleatum,50898
Detailed assessment,50898
refractive errors,50898
high Cs,50898
Ewen,50898
Chagos,50898
Caucasus,50898
motor restlessness,50898
IGF2BP2,50898
saprophytic,50898
Evans blue,50898
Po,50898
ADAPT,50898
FABP2,50898
allometrically,50898
MCPA,50898
mydriasis,50898
Landsberg,50898
Trisomy 16,50898
working mother,50898
V-20,50898
antibunching,50898
Cockcroft-Gault formula,50898
NHS Evidence,50898
Highest education,50898
RIT,50898
choral evensong,50898
8088,50898
96 minutes,50898
Fiber type,50898
C5a receptor,50898
naked DNA,50898
whiplash injury,50898
vaccinia virus,50898
endometrial intraepithelial neoplasia,50898
levamisole,50898
DsRed,50898
Propionibacteria,50898
Irradiation,50898
ventromedial hypothalamus,50898
eIF4A,50898
Gediz River,50898
europium,50898
cryptogenic,50898
friary,50898
monohydrate,50898
cofilin,50898
shape analysis,50898
Agalychnis,50898
subtropical front,50898
k-ras,50898
Helmert,50898
Health professional,50898
loss averse,50898
map-based cloning,50898
grape juice,50898
sabinene,50898
Haryana,50898
VOD,50898
Rain forest,50898
lenticular nucleus,50898
facultative anaerobic,50898
Qishn,50898
Fortuna,50898
Tillich,50898
preexponential factor,50898
prosthetic leg,50898
Nostoc,50898
Polyclonal antibodies,50898
Butea superba,50898
rigid body,50898
UWC,50898
microcytic,50898
phenoxyl,50898
fitness model,50898
Bioaccumulation,50898
superoinferior,50898
PC-3,50898
Stride length,50898
Fermi contact interaction,50898
NYHA classification,50898
Rubus,50898
alpha-pinene,50898
polyglutamylation,50898
interventricular septum,50898
Piedmont,50898
irritable bowel disease,50898
NOS2,50898
catches.,50898
Dutch Disease,50898
HTML,50898
carvacrol,50898
definite article,50898
cerebellar ataxia,50898
transgenic plant,50898
HARM,50898
Nasal bone,50898
FET,50898
Campanian,50898
x-ray crystallography,50898
Lactobacillus reuteri,50898
spin diffusion,50898
Mel1B,50898
Sargasso Sea,50898
paleoclimatic,50898
Inland Ice,50898
Nitrification,50898
eserine,50898
vacuolation,50898
Maritime Continent,50898
variation analysis,50898
hyperalgesia,50898
weightlifting,50898
double minute,50898
TEQs,50898
overgrazing,50898
emesis,50898
Mainz Basin,50898
AABB,50898
progressive diaphyseal dysplasia,50898
PKR,50898
cercariae,50898
isostatic uplift,50898
Niihau,50898
PSMA7,50898
quasi-homogeneous,50898
Defecation,50898
14-3-3 protein,50898
ACOX1,50898
beta-pinene,50898
tensin,50898
moral realism,50898
Pulmonary hypoplasia,50898
LPO,50898
Schoenus,50898
refugia,50898
slot machine,50898
TOP1,50898
NITA,50898
canonical distribution,50898
tetramethylethylenediamine,50898
bronchial hyperreactivity,50898
Ephedra,50898
C-14 years BP,50898
prohead,50898
Corsodyl,50898
Android OS,50898
"100,000 years",50898
catechol,50898
dehiscence,50898
Batten disease,50898
Body image,50898
genotype-environment interaction,50898
CGRP,50898
immunosuppressive agent,50898
sphingomyelin,50898
chiral induction,50898
GP8,50898
North Sea region,50898
XPF,50898
desflurane,50898
mecamylamine,50898
mitochondrial permeability transition pore,50898
NF-kappaB,50898
macroinvertebrate,50898
spinocerebellar ataxia,50898
trkA,50898
Gundulf,50898
flamingo,50898
Jialingjiang,50898
Total lung capacity,50898
DsbA,50898
InSAR,50898
Hydrogenolysis,50898
sublingually,50898
Forb,50898
desquamation,50898
Niederlausitz,50898
menstruating,50898
RRM1,50898
Early Permian,50898
giardiasis,50898
Diatomite,50898
stereoisomers,50898
memory T cell,50898
Intestinal permeability,50898
respiratory depressant,50898
Chorionic villus sampling,50898
hexaploid,50898
laquinimod,50898
OBX,50898
co-transport,50898
brothel,50898
Shem,50898
GOR,50898
.CO,50898
Murmansk,50898
benzamidine,50898
SCH,50898
Manet,50898
M4,50898
PTPRR,50898
sibutramine,50898
Hanjiang,50898
XML,50898
destrin,50898
EVA,50898
NaeI,50898
Lyon,50898
East European Craton,50898
TIR,50898
Camurati-Engelmann disease,50898
Franciscans,50898
topographic map,50898
thymol,50898
tropical moist broadleaf forests,50898
sesquifulvalene,50898
Brachial artery,50898
transmission disequilibrium test,50898
myelin-associated glycoprotein,50898
Estrogen,50898
pnp,50898
imidazolate,50898
aphakia,50898
rutin,50898
yogurt,50898
reductionism,50898
CL 9,50898
BCL2L1,50898
Epiphyte,50898
exsolved,50898
trichilemmal cyst,50898
mifepristone,50898
R516,50898
kallikreins,50898
cofilin 1,50898
cortivazol,50898
isolated DNA,50898
dimethyl sulfoxide,50898
ClpP,50898
DEFRA,50898
VRE,50898
spectral component,50898
Ralstonia,50898
HVC,50898
TAL1,50898
light meter,50898
nano-particle,50898
caprolactam,50898
2-propanol,50898
CER1,50898
ion-pairing,50898
castrate,50898
multivesicular bodies,50898
Purkinje neurons,50898
arcuate arteries,50898
micrometastasis,50898
Micromonas,50898
function points,50898
thrombogenicity,50898
teleost,50898
Roxb.,50898
matrix power,50898
loop-mediated isothermal amplification,50898
Caledonian,50898
picomole,50898
population cycle,50898
input impedance,50898
anterior olfactory nucleus,50898
cromoglycate,50898
S-adenosyl methionine,50898
Molecular diversity,50898
statistical software,50898
locally stable,50898
CEACAM1,50898
driver group,50898
Diverticulitis,50898
nigericin,50898
Bromide,50898
Artinskian,50898
White willow,50898
shoot apical meristem,50898
icosahedral symmetry,50898
isoalloxazine ring,50898
endrin,50898
fusion pore,50898
ELISPOT,50898
Mean difference,50898
knee replacement,50898
witchcraft,50898
grain flow,50898
chromosomal aberration,50898
minimum mode,50898
Fetal death,50898
protein translocation,50898
NEH,50898
contour set,50898
structure group,50898
southwest monsoon,50898
nuclear waste,50898
public holiday,50898
femtomole,50898
P-type ATPase,50898
Social sciences,50898
TEMED,50898
ongoing brain activity,50898
casino,50898
bacteriochlorin,50898
winged helix,50898
Astronomical Netherlands Satellite,50898
Sleep onset,50898
glycan array,50898
Java RMI,50898
Karplus equation,50898
gas chromatograph,50898
PUMA,50898
H3 receptor,50898
thromboplastin,50898
terbium,50898
Beegden,50898
trkB,50898
minimum alveolar concentration,50898
optical nerve,50898
friction velocity,50898
BMZ,50898
Preboreal,50898
homotopy,50898
SD 42,50898
pyrimidine dimers,50898
Lipase,50898
NFG,50898
bioequivalent,50898
subpixel,50898
English Channel,50898
Vascular endothelial growth factor,50898
ABCB4,50898
A. africana,50898
viral protein,50898
polysulfone,50898
NWC,50898
acicular,50898
mangrove,50898
vibronic coupling,50898
radioisotope,50898
polyols,50898
total parenteral nutrition,50898
homotropic,50898
CUP,50898
The automatic,50898
Poetry,50898
superior colliculi,50898
dopamine D2 receptor,50898
height map,50898
Hammerschmidt,50898
neonatal seizure,50898
sociometric status,50898
Trent,50898
mesencephalon,50898
RNase MRP,50898
West Greenland Current,50898
cholate,50898
exonuclease,50898
MC1,50898
climacteric,50898
effective core potential,50898
ORP,50898
coumarin,50898
quantum number,50898
Kandinsky,50898
QTC interval,50898
identical twin,50898
moss layer,50898
Elective surgery,50898
Transgene,50898
socio-economic group,50898
feline coronavirus,50898
neurological deficit,50898
anastrozole,50898
UCP1,50898
cellular differentiation,50898
B symptoms,50898
sinusitis,50898
a602,50898
E3L,50898
W13,50898
nanometre,50898
nitrifying bacteria,50898
electropherogram,50898
signal 2,50898
Encopresis,50898
SOS1,50898
Hoevelaken,50898
osmotic stress,50898
salicin,50898
F10,50898
type IV collagen,50898
joint capsule,50898
transmission coefficient,50898
trkC,50898
Hoogeveen,50898
lymphatic vessels,50898
Scythian,50898
acLDL,50898
CB1 receptor,50898
MACTAR,50898
Diplodon,50898
MAFAC,50898
antidementia,50898
seminoma,50898
continental climate,50898
nerve regeneration,50898
IA2,50898
isoflurane,50898
aromatic system,50898
Basis function,50898
Wortmannin,50898
calcitonin gene-related peptide,50898
octan,50898
adenosis,50898
bisindolylmaleimide,50898
systemic mastocytosis,50898
K-M,50898
Rose,50898
Power analysis,50898
betablocker,50898
dinitrochlorobenzene,50898
1.8/1,50898
Clarkson,50898
benzenoids,50898
triple-resonance,50898
dorsoventral,50898
TRIM,50898
hypoglossal,50898
ring species,50898
cdkn1a,50898
Topsoil,50898
Kapp,50898
Cetrorelix,50898
lung surfactant,50898
anakinra,50898
light-harvesting antenna,50898
pitch ratio,50898
conscription,50898
Melan-A,50898
daily source code,50898
critical exponent,50898
Hof van Holland,50898
emaciation,50898
Terrigenous,50898
Turbidity,50898
hepatologist,50898
exudate,50898
retinoblastoma protein,50898
peritoneal lavage,50898
Nelson,50898
isodrin,50898
profundal zone,50898
thiocyanate,50898
intercalated disks,50898
venule,50898
Puerto Rico,50898
Transpiration,50898
standing long jump,50898
1-hydroxypyrene,50898
harzburgitic,50898
OsteoArthritis Research Society International,50898
5 alpha-reductase,50898
AAb,50898
S-adenosyl homocysteine,50898
V. cholerae,50898
dysfunctional uterine bleeding,50898
Mayer waves,50898
needle biopsy,50898
AT-AT,50898
Zoledronate,50898
uterine arteries,50898
AEBSF,50898
Cladotanytarsus,50898
bream,50898
soil chemistry,50898
glossopharyngeal,50898
upper gastrointestinal surgery,50898
hypha,50898
sea breeze,50898
diabetic kidney disease,50898
mollusc,50898
Etanercept,50898
Starostin,50898
Chlorophyta,50898
Explained variance,50898
"Waldenburg, Switzerland",50898
IHE,50898
chloralose,50898
ASI,50898
plant morphology,50898
Hypochondriasis,50898
propanal,50898
Fecundity,50898
burghers,50898
PBM,50898
exophthalmos,50898
T-maze,50898
East Coast,50898
lisinopril,50898
Behavioral therapy,50898
Tritium,50898
spiritualism,50898
ventricular remodeling,50898
endovascular coiling,50898
alpha-latrotoxin,50898
substantia nigra pars compacta,50898
partial correlation,50898
FGFR3,50898
Populus nigra,50898
Coulombic attraction,50898
malabsorption syndromes,50898
naevi,50898
translationally controlled tumor protein,50898
P-star,50898
Aldrich,50898
Femoral artery,50898
BIRC3,50898
zinc finger,50898
Sergeant,50898
PICT,50898
intravenous fluid,50898
a603,50898
daphnia,50898
colorimetry,50898
Bone metabolism,50898
alpha defensin,50898
ovarian cycle,50898
B96,50898
East Carpathian,50898
BRIC,50898
Old English,50898
nuclear localization signal,50898
sample bias,50898
pasta,50898
Counterpoise,50898
salt pans,50898
carboxymethyllysine,50898
Meppel,50898
hepatopancreas,50898
Phylogenetic tree,50898
Malevich,50898
AMG,50898
ciliary body,50898
IL-9,50898
neuroendocrine system,50898
aff,50898
Solar System,50898
CLO,50898
Endurance training,50898
HLA-A1,50898
V-3,50898
bi-,50898
yeast two-hybrid,50898
TNF-a,50898
Yichang,50898
NYS,50898
morpholinyl,50898
bionanotechnology,50898
Computer simulation,50898
work-family conflict,50898
HHEX,50898
WAY-100635,50898
computer-assisted surgery,50898
pRb,50898
Wallace Stevens,50898
Gastric mucosa,50898
inclinometer,50898
tL,50898
CARD,50898
heterotropic,50898
Walvis ridge,50898
alpha-naphthoflavone,50898
PubChem,50898
eIF4F,50898
receptive field,50898
actinic keratoses,50898
GATA1,50898
L-leucine,50898
involution,50898
great toe,50898
C11,50898
daltons,50898
Venetia,50898
MG132,50898
motion compensation,50898
Squamous cell carcinoma,50898
Basidiomycota,50898
Vilsmeier reagent,50898
perisinusoidal space,50898
digestive gland,50898
fibrocartilage,50898
MTHFD1,50898
Epiphany,50898
macroalgae,50898
type I diabetes mellitus,50898
procrustes analysis,50898
craton,50898
evolutionary optimization,50898
Prophylactic cranial irradiation,50898
oncolysis,50898
Pediatric Endocrinology,50898
Hematoxylin,50898
hexacene,50898
syncytium,50898
procyanidin B2,50898
AT hook,50898
Renal transplantation,50898
OCA2,50898
Hadley cell,50898
Neurological examination,50898
DEC,50898
ANP,50898
Incyte,50898
syndecan,50898
antiandrogen,50898
spinocerebellar ataxia type 6,50898
PAAT,50898
kaempferol,50898
avidin,50898
seo,50898
tonsils,50898
NPP1,50898
annexin,50898
arcsec,50898
oc,50898
midsagittal plane,50898
FABP5,50898
ankyrin repeat,50898
nasal mucosa,50898
wheatgerm,50898
salad,50898
Early Carboniferous,50898
lcp1,50898
MIC90,50898
Abramis brama,50898
Inspection time,50898
Uden,50898
dynamic viscosity,50898
capillary flow,50898
Tcn-2,50898
many-body system,50898
parasubiculum,50898
a614,50898
motor neurone disease,50898
trochanter,50898
FEBS Letters,50898
carbonyl group,50898
Burgundian dukes,50898
eticlopride,50898
middle cerebral arteries,50898
Nilotinib,50898
bifurcation theory,50898
human computer,50898
petrosal bone,50898
distance distribution function,50898
Elmo,50898
Acupuncture,50898
condylar hyperplasia,50898
sulfotransferase,50898
ELISpot,50898
The equation,50898
spectroradiometry,50898
FANCE,50898
surgical oncologist,50898
Agulhas Plateau,50898
prediction interval,50898
melanin-concentrating hormone,50898
NCLR,50898
D. salina,50898
B-lymphocyte,50898
XRCC2,50898
infiltrative ophthalmopathy,50898
PTX,50898
Acetylation,50898
PLCB4,50898
Tortonian age,50898
sintering,50898
FADD,50898
VAP,50898
fluorometer,50898
The observer,50898
muscularis mucosae,50898
cdc37,50898
achondroplasia,50898
Brain Res.,50898
iodine-131,50898
hemoglobin a1c,50898
M19,50898
Aneuploid,50898
P53,50898
mancus,50898
bone healing,50898
Murcia,50898
genome editing,50898
linguistic sign,50898
Maximum Likelihood,50898
35 mm,50898
alesund,50898
V-MAX,50898
2-cyanoethyl,50898
sociocybernetics,50898
BSP,50898
Haplochromis,50898
HFE gene,50898
thimerosal,50898
Nod2,50898
Z-line,50898
Ku70,50898
yeast two-hybrid screen,50898
LDL receptor family,50898
magnetochemistry,50898
Eosin,50898
butanal,50898
enterobactin,50898
Chara,50898
non-melanoma skin cancer,50898
Dinophyta,50898
Coevorden,50898
crown-rump length,50898
foot pressure,50898
ammonia monooxygenase,50898
oltipraz,50898
patch-clamp technique,50898
Methimepip,50898
cerebral perfusion pressure,50898
PERK,50898
L19,50898
SFTPB,50898
periodontal pocket,50898
diphenylamine,50898
lanthanum,50898
Parsimony,50898
femoral vein,50898
Coumarin,50898
preoptic,50898
severe combined immunodeficiency,50898
lithification,50898
medical device,50898
Thassos,50898
feminizing effects,50898
ellipticine,50898
photoreceptor neurons,50898
Government Economic Service,50898
galactosialidosis,50898
excitation-contraction,50898
triacsin C,50898
anogenital warts,50898
tositumomab,50898
graft rejection,50898
GLN,50898
acinar,50898
iminium,50898
digoxin,50898
reticuloendothelial,50898
sleep-disordered breathing,50898
short pump,50898
cyclic nucleotides,50898
fast atom bombardment,50898
RASA1,50898
radio frequency ablation,50898
Cayenne,50898
taphonomy,50898
computer programming,50898
complement C3,50898
hydrographic,50898
closed-loop control,50898
stereomicroscope,50898
Hamster,50898
procyanidin B5,50898
rector,50898
Uveitis,50898
SLC30A8,50898
dimethylformamide,50898
Neurod1,50898
MAO-A,50898
KMP,50898
Cem,50898
GCB,50898
vitamin D-binding protein,50898
Corsica,50898
Cell cycle,50898
Heart rate variability,50898
vas deferens,50898
xylitol,50898
butylated hydroxyanisole,50898
crista,50898
evensong,50898
Middle Rhine,50898
St Gallen,50898
pikeperch,50898
Aurora,50898
SART3,50898
AH26,50898
internal thoracic,50898
catena,50898
IPIS,50898
granule cell,50898
wild fish populations,50898
stand level,50898
South Sandwich,50898
SICI,50898
mitotic nondisjunction,50898
SAC,50898
moon phase,50898
cellular adhesion,50898
TALENs,50898
central venous catheters,50898
autosomal dominant polycystic kidney disease,50898
PI3 kinase,50898
NIT,50898
lignite,50898
south Aegean,50898
ADP-ribose,50898
Sema3a,50898
buffer capacity,50898
bufuralol,50898
Far-Western blotting,50898
Dissipation,50898
kcs,50898
Hessian,50898
probability generating function,50898
glycol cleavage,50898
chronic ulcers,50898
SDHD,50898
electron beam lithography,50898
Reeb vector field,50898
sensory deprivation,50898
Kuhnian,50898
AMX,50898
transcritical bifurcation,50898
terawatt,50898
rhizobia,50898
type I diabetes,50898
Savannah River Site,50898
massively parallel signature sequencing,50898
core sample,50898
Antimicrobial resistance,50898
Central Region,50898
Yan,50898
schema-focused therapy,50898
sedentary lifestyle,50898
schistosomes,50898
Gospel harmony,50898
brain death,50898
deciduous teeth,50898
Puerto Rican,50898
Borel,50898
cleavage product,50898
Speech perception,50898
Weyl,50898
totally disconnected space,50898
CSCL,50898
dwarfism,50898
treewidth,50898
insurgency,50898
atomic emission,50898
B vitamin,50898
Brodmann areas,50898
Lower Rhine,50898
face configuration,50898
metal carbonyl,50898
Software Engineering,50898
determinacy,50898
orthogonal polynomials,50898
Community Reinforcement Approach,50898
cell calcium,50898
RMI,50898
The trap,50898
thiazines,50898
algebraic Riccati equation,50898
magnetron,50898
System-of-Systems,50898
calcium metabolism,50898
skin graft,50898
Phaedo,50898
AD/HD,50898
loggerhead turtle,50898
sum frequency generation,50898
DNB,50898
Acta Psychologica,50898
multimer,50898
multi-agent systems,50898
Corvo,50898
atmospheric aerosols,50898
corticotropin-releasing factor,50898
suture zone,50898
fathead,50898
"1,25-dihydroxyvitamin D3",50898
peripheral tolerance,50898
tachypnea,50898
precocious puberty,50898
agent architecture,50898
De Economist,50898
Pim Fortuyn,50898
sustainable mobility,50898
A59,50898
cornification,50898
Northern Calcareous Alps,50898
dynamic structure factor,50898
West Java,50898
special organization,50898
acute stress response,50898
vine,50898
structural formula,50898
exchangeability,50898
rare gas,50898
disciplinary code,50898
aminophenol,50898
follicular development,50898
aperture angle,50898
Oral-B,50898
telephone number,50898
match play,50898
latent class model,50898
haematopoiesis,50898
hepatic duct,50898
suicide pill,50898
reproduction technology,50898
mangrove forest,50898
IEEE 1471,50898
2 Kings,50898
CdL,50898
rock dove,50898
extravert,50898
3-methylcrotonyl-CoA carboxylase deficiency,50898
acute leukemia,50898
Autism-spectrum Quotient,50898
ABN-AMRO,50898
calcining,50898
EVLA,50898
"2,2'-Bipyridine",50898
ipsative,50898
description logic,50898
discounted cash flow,50898
neonicotinoid,50898
olefin metathesis,50898
Runge-Kutta,50898
Parasuicide,50898
architecture description,50898
reference case,50898
marine reptile,50898
laboratory technique,50898
aluminosilicate,50898
Ebbinghaus illusion,50898
bacterivorous,50898
chaperonin,50898
Birnaviridae,50898
Tennis elbow,50898
blanket bog,50898
alpha-catenin,50898
TwinsUK,50898
growth differentiation factor,50898
Outcrop,50898
involuntary unemployment,50898
butylated hydroxytoluene,50898
G Protein,50898
Interpersonal psychotherapy,50898
agent-based social simulation,50898
Urtica dioica,50898
The call,50898
methylenetetrahydrofolate reductase,50898
Brigham Young University,50898
railway station,50898
soil food web,50898
MiB,50898
selective enrollment,50898
mosque,50898
invented traditions,50898
flow diagram,50898
FIFO,50898
single-mode optical fiber,50898
WO,50898
permille,50898
cognitive dissonance,50898
welfare reform,50898
power series,50898
fallibilism,50898
SOR,50898
conformational ensemble,50898
cysteine protease,50898
Mass spectroscopy,50898
computational chemist,50898
Web server,50898
metamathematics,50898
Eriksen flanker task,50898
cardiotoxic,50898
Western culture,50898
heuristic algorithm,50898
lim inf,50898
The Grid,50898
distributed shared memory,50898
Stark field,50898
William I,50898
GGZ Nederland,50898
Varanus,50898
W-2,50898
Thomas Andrew Knight,50898
dpa,50898
functional appliances,50898
Exiles,50898
antianginal,50898
FSH receptor,50898
knowledge-based systems,50898
tetraspanin,50898
savings plans,50898
hypertext,50898
Medieval Warm Period,50898
autoimmune dysfunction,50898
Solvation,50898
pyrogenic,50898
Strombolian,50898
Internet radio,50898
rate parameter,50898
evidence-based dentistry,50898
squamous epithelium,50898
Brassica napus,50898
electrostimulation,50898
urinalysis,50898
Mixed model,50898
medicalisation,50898
frequency coordination,50898
synbiotics,50898
soil functions,50898
equilibrium point,50898
FPSG,50898
Roman province,50898
NUTS 3,50898
DNA virus,50898
raster,50898
Molar Incisor Hypomineralisation,50898
extrajudicial killing,50898
semiconductor Bloch equations,50898
phase portraits,50898
xenoestrogens,50898
collateral circulation,50898
influenza pandemic,50898
social-democratic,50898
gymnastics,50898
lutetium,50898
Grignard reagent,50898
contrived,50898
Kybernetes,50898
reading disability,50898
Grassmannian,50898
secularization,50898
Coulomb potential,50898
automobile,50898
Weichselian,50898
delay differential equation,50898
Falls Prevention,50898
Integrated Project,50898
Chromatium,50898
Hoare,50898
Objective Structured Clinical Examination,50898
Felsenthal,50898
Western civilization,50898
Physical Therapy,50898
rule-based system,50898
Den Bosch,50898
verb-second,50898
simulation methods,50898
voluntary sector,50898
West German,50898
rhodopin,50898
solid-phase synthesis,50898
Moody,50898
Carthusian,50898
ROH,50898
wave packet,50898
compact space,50898
Bioavailability,50898
antiseptic,50898
SAWU,50898
Impressionism,50898
closing argument,50898
Edmonton,50898
porcelain,50898
OMM,50898
credit risk,50898
Rad,50898
hepatocellular cancer,50898
X-ray burst,50898
Radionuclide,50898
consensus democracy,50898
trauma surgeon,50898
transvectant,50898
random graph,50898
locally connected,50898
RFID,50898
Prostaglandin,50898
U4,50898
guanidinoacetate methyltransferase deficiency,50898
price elastic,50898
phenylenediamine,50898
IIT,50898
microreactor,50898
first-class,50898
corporatism,50898
pinhole,50898
Rajendran,50898
same-sex marriage,50898
pyrope,50898
11-cis-retinal,50898
Gert,50898
ApoD,50898
Hans-Ulrich Wehler,50898
copper-containing protein,50898
ethylmaleimide,50898
Kuramoto,50898
Recidivism,50898
elastic tissue,50898
radio receiver,50898
chondrogenesis,50898
hereditary nonpolyposis colorectal cancer,50898
central business district,50898
coordination polymer,50898
fifty-one,50898
Apocalypse,50898
homogeneous space,50898
btr,50898
jerky,50898
magnetic form factor,50898
cone snail,50898
polyfluorene,50898
EU Constitutional Treaty,50898
greater media,50898
hip protector,50898
venous plexus,50898
Langenboom,50898
submarine canyon,50898
demand elasticity,50898
virotherapy,50898
participation bias,50898
Industrial Revolution,50898
calcineurin,50898
move closer,50898
Ural Mountains,50898
extrastriate cortex,50898
family practitioner,50898
soot,50898
Observatorio del Roque de Los Muchachos,50898
quaternization,50898
Hypothesis testing,50898
wide-area network,50898
Enns,50898
Solander,50898
running times,50898
continuous differentiability,50898
boat conformation,50898
gas analyser,50898
sesquilinear,50898
crystalline lenses,50898
regular space,50898
Dzhaparidze,50898
post-tetanic potentiation,50898
Sierpinski carpet,50898
Essential hypertension,50898
independent measures,50898
saccular aneurysm,50898
Microcebus,50898
"New Haven, CT",50898
NIMBY,50898
CUCl2,50898
GER,50898
fungus-growing,50898
Carnegie,50898
diacetylmorphine,50898
capital formation,50898
ENDOR,50898
biostatistics,50898
DM-1,50898
prenatal ultrasound,50898
VCNS,50898
debrisoquine,50898
stochastic network,50898
dicarboxamide,50898
Islamization,50898
Optician,50898
MDC,50898
Agulhas Bank,50898
methylpropyl,50898
Electron nuclear double resonance,50898
procrastination,50898
Southeastern,50898
MALT,50898
recall bias,50898
roller blade,50898
burstiness,50898
continuous-wave,50898
Reuptake,50898
D-glucose,50898
bunchers,50898
grand coalition,50898
X-linked mental retardation,50898
parathion-methyl,50898
Palaeocene-Eocene thermal maximum,50898
nickel allergy,50898
Egr-1,50898
de novo mutation,50898
phytanoyl-CoA dioxygenase,50898
orthogonal matrices,50898
casein kinase 2,50898
planetary accretion,50898
Diverticula,50898
p14ARF,50898
Scatchard analysis,50898
IT governance,50898
heteroclinic bifurcation,50898
GTL,50898
BTX,50898
DFCS,50898
formylation,50898
Pkd1,50898
immunoaffinity chromatography,50898
SHMT1,50898
tonic contraction,50898
strike-slip fault zones,50898
Koobi Fora,50898
explosive eruption,50898
intervertebral foramen,50898
glucoside,50898
water maze,50898
NMR response,50898
heritage management,50898
parasitic worm,50898
ovariectomy,50898
AT-hook,50898
cyclodextrin,50898
flypaper,50898
VFR,50898
FOX proteins,50898
interspersed repeat,50898
bicalutamide,50898
Dopamine transporter,50898
eIF4G,50898
RFO,50898
chronostratigraphic,50898
Compressive strength,50898
BNIP3,50898
extremophile,50898
P2O5,50898
yeast two-hybrid assay,50898
second-harmonic generation,50898
HM Treasury,50898
LTRA,50898
phosphoglycerate mutase,50898
WIDR,50898
Thiobacillus ferrooxidans,50898
aperiodically,50898
myricetin,50898
xeromorphic,50898
iron bacteria,50898
Rely,50898
alpha-terpineol,50898
cathepsin A,50898
endocrine pancreas,50898
return period,50898
Anglican Church,50898
torus palatinus,50898
Tanytarsus,50898
papillary RCC,50898
strike-slip faulting,50898
Metz,50898
PAG,50898
csf1r,50898
rhodamine,50898
RNase III,50898
TCV,50898
Cross-resistance,50898
photic,50898
ABCC8,50898
facet joint,50898
Real-time PCR,50898
Larrea divaricata,50898
ketosis,50898
Mosbach,50898
casei,50898
core binding factor,50898
tonsillitis,50898
Hsp90,50898
tanning bed,50898
pharmacokinetically,50898
P-90,50898
alphavirus infection,50898
cross resistance,50898
dinoflagellate cyst,50898
methyl formate,50898
phenacetin,50898
anticardiolipin antibodies,50898
lactam,50898
Polypharmacy,50898
ESER,50898
K97,50898
ERCC4,50898
Paleoarchean,50898
Menopausal,50898
octanal,50898
MBB,50898
enteral administration,50898
Hallmark,50898
insulin-like growth factor-binding protein,50898
bathymetric,50898
fractography,50898
mitochondrial permeability transition,50898
rusticyanin,50898
addressin,50898
PIN1,50898
LASP-1,50898
Structural analysis,50898
spinal nerve,50898
papular,50898
clonal selection,50898
tetrapyrrolic,50898
enolase,50898
oxidant stress,50898
BLL,50898
base 9,50898
interlobar arteries,50898
Tricuspid regurgitation,50898
IMx,50898
epigallocatechin gallate,50898
Experimental Hematology,50898
Prous Science,50898
lymphocyte function-associated antigen 1,50898
fis,50898
Sociocybernetics,50898
HL1,50898
VATS lobectomy,50898
exosome,50898
Valsalva maneuver,50898
beta receptors,50898
pineal gland,50898
p16INK4a,50898
nitrifying,50898
SINE,50898
alpha-Tocopherol,50898
leptoporus,50898
Bone marrow suppression,50898
Dionysius,50898
heteroclinic cycle,50898
polycystic kidney disease,50898
natural bases,50898
depressogenic,50898
leiomyosarcoma,50898
liver capsule,50898
mpx,50898
complement fixation,50898
endothelin receptor antagonist,50898
ketoacidosis,50898
tegmentum,50898
menadione,50898
Polytrichum,50898
angioid streaks,50898
solitary tract nucleus,50898
linear classifier,50898
multiple drug resistance,50898
profundal,50898
TG1,50898
margarine,50898
aquaporin,50898
lyz,50898
Attenuation,50898
vitellogenin,50898
SDHC,50898
Heteromita,50898
Sibutramine,50898
peau d'orange,50898
homomeric,50898
Mangrove,50898
poly(A)-binding protein,50898
blood oxygenation,50898
calnexin,50898
Astrocyte,50898
methanandamide,50898
global warming potential,50898
reversible process,50898
coplanarity,50898
The navigator,50898
pH 3,50898
LMP2,50898
phenylacetylene,50898
Galapagos hotspot,50898
Cardiobacterium,50898
ring current,50898
dead brain cells,50898
x-ray crystal structures,50898
Claytonia perfoliata,50898
phosphatidylinositol 3-kinase,50898
renal biopsy,50898
autonomic neuropathy,50898
Ecosystem respiration,50898
Holocene Climatic Optimum,50898
Early Triassic,50898
Familists,50898
HLA-A3,50898
blackwater,50898
distributed development,50898
RPL13,50898
mitochondrion,50898
cytotrophoblast,50898
diluent,50898
16 Ma,50898
body burden,50898
Superia,50898
freeze-drying,50898
N-5,50898
gallate,50898
symbolist,50898
cbfa1,50898
VLS,50898
liver enzyme,50898
stereo,50898
ventricular remodelling,50898
ompA,50898
red-shift,50898
Spatial heterogeneity,50898
acrylonitrile,50898
Three Gorges,50898
carbon dioxide tension,50898
sca-1,50898
EGCG,50898
Monastrol,50898
delivery vehicle,50898
LYL1,50898
Vocontian,50898
ageism,50898
Bcl-x(L),50898
transfer RNA,50898
calreticulin,50898
Dilthey,50898
electroelution,50898
vasodilator-stimulated phosphoprotein,50898
embryo quality,50898
charge transfer complex,50898
Rheumatoid factor,50898
ovotestes,50898
Birbeck granules,50898
DQ2,50898
degenerative disc disease,50898
uraemia,50898
Dommel,50898
myelin sheath,50898
Complex II,50898
Chloride channel,50898
diathesis-stress model,50898
lanreotide,50898
chromosome abnormality,50898
Geobacter,50898
bronchoalveolar lavage,50898
carboxypeptidase,50898
paraganglioma,50898
Serotonin transporter,50898
Laacher See,50898
Cercozoa,50898
slickensides,50898
DQ7,50898
erythrocyte count,50898
phacoemulsification,50898
MARCO,50898
Rhenish Massif,50898
erosional surfaces,50898
TAF1,50898
wiley-Liss,50898
Hexapoda,50898
Immunotherapy,50898
CDC25C,50898
RGS proteins,50898
cementum,50898
isoxanthohumol,50898
methoxychlor,50898
joint dislocation,50898
isolated brain,50898
polynucleotide,50898
picrotoxin,50898
Eastern Alps,50898
The Pick,50898
isthmus,50898
MyoD,50898
Peltigera aphthosa,50898
atomic absorption spectroscopy,50898
gravimetrically,50898
RXR,50898
CaP group,50898
dicistronic,50898
mitochondrial toxicity,50898
SN-38,50898
TG3,50898
PaCO2,50898
green leaves,50898
Jianghan,50898
BUB1,50898
human factors,50898
adenylate kinase,50898
Aortic root,50898
ERp29,50898
Bukowski,50898
phase response,50898
CYANA,50898
Stictochironomus,50898
Lanreotide,50898
epistatically,50898
plate tectonic,50898
eye fundus,50898
standard basis,50898
brachiocephalic artery,50898
GATA-2,50898
Erythema migrans,50898
melanocortin receptor,50898
DS 5,50898
oxygen radicals,50898
MXC,50898
LG1,50898
club feet,50898
C-17,50898
Foreign body reaction,50898
valganciclovir,50898
alpha-thalassemia,50898
parietal peritoneum,50898
hemorrhagic fever,50898
Choroidal,50898
opiate receptor,50898
anticorrelated,50898
Coleraine,50898
ionotropic receptors,50898
reduced volume,50898
co-immunoprecipitated,50898
piritramide,50898
DiI,50898
Willd.,50898
involucrin,50898
M203,50898
Harvey,50898
1-hydroxyphenanthrene,50898
ucp1,50898
Piacenzian,50898
pharyngeal arch,50898
Chalkidiki,50898
Cybulski,50898
cornea verticillata,50898
apoER2,50898
northeast monsoon,50898
Mendon,50898
DUSP4,50898
biological matrix,50898
ineffective erythropoiesis,50898
octaethylporphyrin,50898
hypothalamo-hypophyseal portal system,50898
Hspg2,50898
capillary permeability,50898
Oct-4,50898
multi-compartment model,50898
anthraquinone,50898
phospholipase A2,50898
hydrops,50898
byte,50898
tioguanine,50898
cephalodia,50898
channelopathy,50898
aortic sinus,50898
bezafibrate,50898
xylene,50898
adherens junction,50898
vanilloid,50898
phenotypic trait,50898
fluorochromes,50898
epithelial tissue,50898
Bistorta vivipara,50898
chronotherapeutic,50898
Executive dysfunction,50898
hemojuvelin,50898
Johan Wier,50898
OCT1,50898
midbrain tectum,50898
megakaryocytic,50898
3' UTR,50898
Czechs,50898
marginal zone B-cell lymphoma,50898
reservoir modeling,50898
Nanog,50898
ATF4,50898
tBHQ,50898
OSN,50898
G2 cell cycle arrest,50898
oxygen generator,50898
IGF-2,50898
Complicated,50898
spectral linewidth,50898
gephyrin,50898
para-phenylenediamine,50898
National Coalition,50898
intersex,50898
Coma,50898
plant nutrition,50898
anterograde transport,50898
promiscuous action,50898
HLA-DR3,50898
Topiramate,50898
Cladribine,50898
lightning,50898
methylglyoxal,50898
eosinophil peroxidase,50898
J.R.,50898
orexins,50898
apigenin,50898
non-invasive prenatal diagnosis,50898
sodium sulfide,50898
proform,50898
lithium hydroxide,50898
herpes simplex virus 2,50898
Myricetin,50898
viability assay,50898
spiritualist,50898
137Cs,50898
separatrix,50898
Pyridoxine,50898
5'UTR,50898
NeuroReport,50898
ATP7A,50898
SP-B,50898
IGFbp1,50898
SB203580,50898
immunoradiometric assay,50898
non-vascular,50898
measles virus,50898
Anterior chamber,50898
orbital precession,50898
Sixty minutes,50898
S-15535,50898
thrombocyte,50898
Homeobox,50898
Mixture model,50898
metaphosphate,50898
TRPV1,50898
somatodendritic,50898
Foam cell,50898
Saxifraga,50898
The instability,50898
"1,2,3,4-tetrahydronaphthalene",50898
glaucophane,50898
North Aegean,50898
H2A,50898
IRMA,50898
far-red,50898
luteolin,50898
HaCaT,50898
MALDI TOF,50898
opsonizing,50898
Neoglaciation,50898
Serum albumin,50898
syncytia,50898
charophyte,50898
tag SNP,50898
fragile site,50898
gelsolin,50898
associative mechanism,50898
etomidate,50898
Chronic heart failure,50898
retinoid X receptor,50898
Ctgf,50898
serendipity,50898
Nanobody,50898
Laudon,50898
5-aza-20-deoxycytidine,50898
desulfated,50898
salivary gland cancer,50898
toxocariasis,50898
transsexualism,50898
Lamotrigine,50898
DNMT1,50898
craniosynostosis,50898
dissociative mechanism,50898
tolerable daily intake,50898
H2 receptor,50898
retinoic acid receptor alpha,50898
PI3K-Akt pathway,50898
anilide,50898
Dinoflagellate,50898
endometrial ablation,50898
anorexigenic,50898
oppositifolia,50898
atrial cells,50898
T-helper cells,50898
RAS pathway,50898
Col18a1,50898
Laparoscopy,50898
anthraquinones,50898
dopamine D1 receptor,50898
fhl2,50898
copper protein,50898
P40,50898
Nutlin,50898
cellular adaptation,50898
Defensin,50898
Dlk1,50898
Mannose,50898
Longmen,50898
Pyrite,50898
fumonisin,50898
"WIN 55,212-2",50898
IPNS,50898
vaginal flora,50898
blue-collar,50898
ovariectomized rat,50898
rotational temperature,50898
Noord-Brabant,50898
nystatin,50898
sodalime,50898
complete regeneration,50898
U. dioica,50898
tropical rainforest,50898
right-skewed,50898
Adderall,50898
digital photography,50898
Monofluorophosphate,50898
The commuters,50898
saving accounts,50898
Archaic period,50898
FasL,50898
3-hydroxyacyl-CoA dehydrogenase,50898
safe semantics,50898
Warmblood,50898
Calais,50898
somatotypes,50898
RIVM,50898
Honolulu,50898
formylated,50898
arylation,50898
metallurgy,50898
benign tumor,50898
Thymocyte,50898
notebook computer,50898
Reproducing Kernel Hilbert Space,50898
foreground-background,50898
big difference,50898
pediatric diabetes,50898
vector space,50898
tricarbon,50898
Poa alpina,50898
deep structure,50898
Gnai2,50898
racemic mixture,50898
Royal Dutch Medical Association,50898
dice game,50898
respiratory insufficiency,50898
Occupational Therapy,50898
intestinal villi,50898
urinary tract obstruction,50898
Dunaliella,50898
transforming growth factor beta,50898
Cognitive pretesting,50898
altitude acclimatization,50898
climate-friendly,50898
Oud-Alblas,50898
certainty equivalent,50898
valency,50898
corticoid,50898
porphyria,50898
intersection number,50898
polymethyl methacrylate,50898
guanidine,50898
Shepard interpolation,50898
T helper cell,50898
mechanical joint,50898
Prognathodon saturator,50898
child labour,50898
deterministic routing,50898
rhetorical question,50898
thermal expansion coefficient,50898
hydrogeologists,50898
electromagnetic interference,50898
pelvic pain,50898
Computer Science,50898
Neophobia,50898
civic forum,50898
Middle Belt,50898
octant,50898
Epigenetic inheritance,50898
presynaptic terminal,50898
symmetry perception,50898
K-beta,50898
argillaceous,50898
orexinergic,50898
Christian democratic,50898
Burmester,50898
Abamectin,50898
Masturbation,50898
reverse-phase HPLC,50898
velocity map imaging,50898
microemboli,50898
BHT,50898
Nehari,50898
economic equilibrium,50898
bonobo,50898
conditional independence,50898
structural hole,50898
RASA1 gene,50898
triphenylphosphine,50898
kyphotic,50898
arctangent,50898
Pain Forum,50898
Tony Blair,50898
Dove prism,50898
European Union Force,50898
major burns,50898
major vault protein,50898
monk,50898
carboxamido,50898
nociceptive pain,50898
antitrust,50898
community policing,50898
prosimian,50898
Ephesus,50898
feudal,50898
directional coupler,50898
plasterboard,50898
trans-esterification,50898
floating island,50898
South Carolina,50898
tooth enamel,50898
Ayodhya,50898
Advanced Scatterometer,50898
OLM,50898
iconography,50898
ENVISAT,50898
pyrimidine analog,50898
BRCA mutation,50898
intrathecal chemotherapy,50898
Arterial blood gas,50898
ossification,50898
PKD1,50898
petrochemical,50898
Graves' ophthalmopathy,50898
Coiba,50898
transference focused psychotherapy,50898
bioethical,50898
degenerative disease,50898
ecological relationships,50898
Thermus thermophilus,50898
petrolatum,50898
Psychinfo,50898
viral coat protein,50898
professional responsibility,50898
Halorhodospira halophila,50898
trauma model,50898
Saalian glaciation,50898
Synechococcus elongatus,50898
dissociative disorder,50898
CTGF,50898
dentine hypersensitivity,50898
basal metabolic rate,50898
cardiovascular disorder,50898
Tyrosinase,50898
cholinesterase inhibitor,50898
functional integral,50898
nefazodone,50898
avascular,50898
dissociative identity disorder,50898
visual field test,50898
limitless,50898
nephrons,50898
Wegener granulomatosis,50898
Tarifit,50898
C1 complex,50898
French-Canadian,50898
graded exercise therapy,50898
Osaka Bay,50898
Sympathetic cooling,50898
Dean,50898
wrong view,50898
Fosen,50898
pulmonary emphysema,50898
herbal extract,50898
immunosuppressant,50898
full-time equivalent,50898
GEOSS,50898
The producers,50898
self-stereotyping,50898
valgus deformity,50898
Trifolium,50898
Java programming language,50898
Ferrier rearrangement,50898
The illusion,50898
mass manipulation,50898
protochlorophyllide reductase,50898
Eurotransplant,50898
nation-state,50898
deliberative democracy,50898
pilgrimage,50898
plastic box,50898
Krishna river,50898
supermolecule,50898
mark 3,50898
quaternary structure,50898
squatting position,50898
heritable disease,50898
blast crisis,50898
phalanges,50898
physical chemistry,50898
Ross River virus,50898
neuroradiologist,50898
learned helplessness,50898
climate protection,50898
circadian clock,50898
night frost,50898
xenoestrogen,50898
radical change,50898
LIF,50898
transmembrane receptor,50898
West Antarctic Rift System,50898
anti-austerity,50898
Hydraulic head,50898
topoisomerase,50898
blocking probability,50898
chemical transport model,50898
German idealist,50898
anaphor,50898
Infant mortality,50898
postterm,50898
polygon,50898
Duero,50898
Cuculus,50898
Definite Article,50898
differentiable,50898
201Tl,50898
tissue Doppler echocardiography,50898
economic history,50898
Deindividuation,50898
stromatolites,50898
interactive architecture,50898
T-COFFEE,50898
free product,50898
file transfer,50898
Diatessaron,50898
NEMO science museum,50898
semimartingale,50898
discourse unit,50898
robotic surgical,50898
intestinal obstruction,50898
Kristel,50898
Cyclops,50898
tumour suppressors,50898
Voetius,50898
grossular,50898
metathesis reaction,50898
inductive logic,50898
AlH3,50898
isoquinoline,50898
VR headset,50898
self-adjoint operator,50898
reduced mass,50898
differential display,50898
multistage sampling,50898
therapeutic endoscopy,50898
surface reconstruction,50898
herbal medicine,50898
Ndola,50898
continuously differentiable,50898
Shear strength,50898
CLV2,50898
protein tyrosine phosphatase,50898
Weber,50898
green accounting,50898
hand tool,50898
rocker bottom feet,50898
radiative flux,50898
abelian sandpile model,50898
grandiosity,50898
Christian opposition,50898
open source architecture,50898
money laundering,50898
Sandinista,50898
Identity disorder,50898
optical path length,50898
Inception,50898
collective marks,50898
crossed molecular beam,50898
HSK,50898
photodiode,50898
combinatorial optimization,50898
Hamiltonian vector field,50898
knowledge commons,50898
book-to-market ratio,50898
Cervantes,50898
uremia,50898
Carl Zeiss,50898
phospholipid bilayer,50898
psittacosis,50898
"1,000 hours",50898
aeroallergen,50898
Counter Strike,50898
demand curve,50898
Prolapse,50898
Scheldt,50898
Isaiah,50898
personal account,50898
spinal mobilization,50898
observational method,50898
time-ordered,50898
volumetric flow rate,50898
reaction-diffusion,50898
The adolescents,50898
Metacarpal,50898
Pyle,50898
Mauretania Tingitana,50898
manganese(II) chloride,50898
real tree,50898
BARQ,50898
degenerate matter,50898
tenosynovitis,50898
wheat gluten,50898
logical address,50898
MEG experiment,50898
Oryctolagus,50898
spatial memory,50898
overharvesting,50898
finite verb,50898
Dynamometer,50898
Metro,50898
discovery learning,50898
referendum,50898
durable good,50898
Midden-Delfland,50898
Magneto-optical,50898
turnip,50898
CERES,50898
reference architecture,50898
idolatry,50898
encryption,50898
ICP-AES,50898
labia,50898
upper respiratory tract,50898
isopenicillin N synthase,50898
Post-Impressionism,50898
virtual laboratory,50898
occupational segregation,50898
word stem,50898
ticket machine,50898
surface energies,50898
Shan,50898
bullous pemphigoid,50898
Pinnularia,50898
chronic myelogenous leukemia,50898
Big Brother,50898
crossbred,50898
Kir4.1,50898
pBR322,50898
forced diuresis,50898
DNMT3B,50898
photobiont,50898
Alendronate,50898
Gekko,50898
cell lysate,50898
junctional epithelium,50898
gamma-synuclein,50898
alpha-adrenergic receptor,50898
alpha beta gamma,50898
critical illness polyneuropathy,50898
tetraploidy,50898
clay minerals,50898
Early Neoproterozoic,50898
lone pair,50898
stress granule,50898
hypothalamic-pituitary-gonadal,50898
Wnt6,50898
cyclin-dependent kinase,50898
phaeophytin,50898
chemotropic,50898
stratifin,50898
phytochelatins,50898
Lower Pleistocene,50898
EIF2B2,50898
b-cell,50898
U1A,50898
a2M,50898
Mlb,50898
F-type,50898
xenon arc lamp,50898
Ulaanbaatar,50898
Anastrozole,50898
Calpain,50898
anamniotes,50898
Imiquimod,50898
IEM,50898
activated complex,50898
TNH,50898
Lactate dehydrogenase,50898
SA-beta-Gal,50898
dosage compensation,50898
Tyrrhenian,50898
Resveratrol,50898
Cyclin D1,50898
alpine plant,50898
gibberellin,50898
plasmacytoid dendritic cell,50898
tissue viability,50898
GCL,50898
Fanconi anemia core complex,50898
phosphorolysis,50898
pyran,50898
enthalpic,50898
22a,50898
BACH1,50898
Cathepsin,50898
peripheral resistance,50898
3-hydroxymorphinan,50898
The ORB,50898
GADD45,50898
skeletal dysplasias,50898
siglec,50898
Finnmark,50898
nodular melanoma,50898
osteosclerosis,50898
New Jersey,50898
Clopidogrel,50898
agrin,50898
Euglena,50898
Cryptopygus antarcticus,50898
Mitral valve,50898
posterior mediastinum,50898
limiting resource,50898
outlast,50898
Isopoda,50898
NAc.,50898
ATP7B,50898
lung edema,50898
6w,50898
alpha enolase,50898
European Cenozoic Rift System,50898
heterogeneous nuclear ribonucleoprotein,50898
Pol,50898
prophylactic agents,50898
waf1,50898
obesogen,50898
Breeze,50898
chemotherapies,50898
protein motif,50898
limiting nutrient,50898
nuclear fragmentation,50898
toluidine blue,50898
vasculogenesis,50898
Jacobian matrix,50898
triclosan,50898
DBR1,50898
immunomodulator,50898
case 24,50898
aplastic anemia,50898
TAT-1,50898
aldolase C,50898
Coenzyme Q,50898
Barents Sea,50898
Khazen,50898
balloon valvuloplasty,50898
udp,50898
Proteolysis,50898
chloroxylenol,50898
phorbol esters,50898
Red River,50898
Chemosphere,50898
TAT-3,50898
Flutamide,50898
Sverdrup Basin,50898
TT group,50898
Methylenedioxymethamphetamine,50898
MRP1 transporter,50898
SWI,50898
anastomose,50898
Post-hoc analysis,50898
HSpg2,50898
Gamasellus racovitzai,50898
stratigraphic unit,50898
REV3,50898
Ubiquitin,50898
pure tone audiometry,50898
4He,50898
crop protection,50898
Adenoviral,50898
azygos vein,50898
confirmatory diagnosis,50898
hypoxia-inducible factor,50898
Prostigmata,50898
rhesus macaque,50898
adaptive trait,50898
maleic anhydride,50898
tenascin-C,50898
SQR,50898
Purkinje fibers,50898
data link,50898
PI3-K,50898
Image processing,50898
caudate putamen,50898
RUNX1,50898
Redshift,50898
polyrhythm,50898
Berber people,50898
sick role,50898
superior vena cava obstruction,50898
superb fairy-wren,50898
postal code,50898
peptoid,50898
Burmese,50898
Multilocus sequence typing,50898
maximin,50898
equivariant,50898
salivary gland tumor,50898
cIAP2,50898
The fluid,50898
Psychological Bulletin,50898
fuel tax,50898
second-wave feminism,50898
blood contact,50898
Tov province,50898
"high-nutrient, low-Chlorophyll",50898
electron-hole pair,50898
Rhizobia,50898
reconnected,50898
lactobacillus,50898
oral hairy leukoplakia,50898
helium-3,50898
Treatment group,50898
infallibilism,50898
buspirone,50898
KPN,50898
saphenous vein,50898
mineral oil,50898
fluorescence resonance energy transfer (FRET),50898
J.D.,50898
sodium lauryl sulphate,50898
interferon alpha,50898
slalom,50898
Informed decision,50898
porphyry,50898
RTRs,50898
Nickerie,50898
Inclinometer,50898
skeletal system,50898
game controller,50898
lycopene,50898
microstrip,50898
oligopeptidase,50898
opsonin,50898
blackbody radiation,50898
acoustic space,50898
global dimension,50898
MCSCF,50898
Perkin-Elmer,50898
EUFOR,50898
Quasi-experiment,50898
thrombotic thrombocytopenic purpura,50898
human musculoskeletal system,50898
religious liberalism,50898
midlatitude,50898
NMRS,50898
Raoul,50898
lizard,50898
Horn clauses,50898
Frank Jackson,50898
FTV,50898
algebraic multiplicities,50898
old-growth,50898
national telephone company,50898
Baralyme,50898
open-pit,50898
"1,3-butadiyne",50898
Dimension theory,50898
scorpionate ligand,50898
dynamic factor,50898
nonlinear programming,50898
superior colliculus,50898
acute lymphatic leukaemia,50898
dressage,50898
test case,50898
socioeconomics,50898
white-box,50898
pudendal,50898
Heyting arithmetic,50898
AU-rich element,50898
garbage collector,50898
erythermalgia,50898
free lunch,50898
Nested case-control study,50898
voltage-gated Ca2+ channels,50898
SH2 domain,50898
gastrocnemius muscle,50898
unconformably,50898
Contra,50898
Resistance training,50898
Bray,50898
ISIN,50898
colour vision,50898
East Antarctic Craton,50898
dbm,50898
tax treaty,50898
German adjectives,50898
ethylenediamine,50898
NLDC,50898
A 71,50898
SMASH,50898
capitate,50898
Polder Model,50898
Clinician-administered PTSD Scale,50898
wakeful,50898
median absolute deviation,50898
dental school,50898
price discrimination,50898
I-129,50898
software framework,50898
Argyris,50898
bone morphogenic protein,50898
confocal laser scanning microscope,50898
prions,50898
Vogt,50898
chiral ligand,50898
RIAA,50898
mitochondrial trifunctional protein deficiency,50898
porphyritic,50898
UCL,50898
trimethylammonium,50898
lens nucleus,50898
subcortical dementia,50898
netrin,50898
Blok,50898
triethylphosphite,50898
mainland Portugal,50898
Spontaneous recovery,50898
glycidyl methacrylate,50898
olfactory sensory neurons,50898
adverb,50898
Tudor,50898
limit-cycle,50898
White blood cell,50898
class library,50898
vancomycin-resistant enterococci,50898
hypervolemia,50898
IBC,50898
charged particle,50898
alpha defensins,50898
Psychophysics,50898
translational medicine,50898
coffee substitute,50898
hydrogen astatide,50898
Common bile duct,50898
ultrafast laser,50898
dissimilation,50898
Shanxi,50898
styloid process,50898
Schleiermacher,50898
rational number,50898
toluenesulfonyl,50898
speckle tracking echocardiography,50898
market clearing,50898
load-time,50898
ten percent,50898
heterochromatic,50898
Protease inhibitor,50898
Born approximation,50898
biomechanic,50898
dopaminergic pathways,50898
geothermobarometry,50898
homothallic,50898
basal cisterns,50898
"Memphis, TN",50898
selective retention,50898
tweezers,50898
Malaya,50898
right-of-way,50898
Leptospira interrogans,50898
Urals,50898
sulfonyloxy,50898
cell cycle analysis,50898
aviation fuel,50898
Malpelo,50898
digital elevation model,50898
laser guided,50898
Osama bin Laden,50898
cross-breeding,50898
CUO,50898
Veghel,50898
proton motive force,50898
spinal fracture,50898
Gadus morhua,50898
gigabyte,50898
diarylquinoline,50898
nonidentical twins,50898
reachability,50898
Diabatic,50898
contour detection,50898
interaction styles,50898
incA,50898
propagator,50898
PKD2,50898
Rhizobium,50898
Nerine bowdenii,50898
negligence,50898
penile cancer,50898
absorbing set,50898
neurodevelopmental delay,50898
Survivor,50898
lacuna,50898
Modiola,50898
central sulcus,50898
poly(A) tail,50898
Chokurdakh,50898
Jan Joosten,50898
World Trade Organization,50898
predictive modelling,50898
Robert Hand,50898
manic-depressive disorder,50898
stromal cell-derived factor-1,50898
Vienna,50898
Chlamydophila psittaci,50898
Durkheimian,50898
Tauern Window,50898
theorem prover,50898
wort,50898
Miguel,50898
Evo Morales,50898
ABV,50898
DNA marker,50898
A 72,50898
frataxin,50898
masticatory muscles,50898
Strictness,50898
Coastal erosion,50898
tracheoesophageal fistula,50898
dummy variable,50898
kinesiology,50898
"Baltimore, Maryland",50898
Kleinostheim,50898
F-19,50898
technical difficulties,50898
immunosurveillance,50898
erosive lichen planus,50898
lung lavage,50898
sex differentiation,50898
D-Ribose,50898
Hohenberg,50898
anion gap,50898
Exuma Cays,50898
Tatum,50898
arteriovenous fistula,50898
Plankton,50898
dose-ranging study,50898
Pavlovian,50898
Gaussian random process,50898
lateral epicondylitis,50898
growth failure,50898
long nineteenth century,50898
multivariate data analysis,50898
neurotransmitter receptor,50898
Castration,50898
limiting case,50898
transaldolase,50898
SEN,50898
The voice,50898
uridine phosphorylase,50898
diketone,50898
splenomegaly,50898
witchcraft trials,50898
chromosome 20,50898
teichoic acids,50898
Langer,50898
four-wave mixing,50898
YHC,50898
cybernetics,50898
spinal cord-injured,50898
Lerner,50898
Titan,50898
rationalist,50898
empirical law,50898
curve-fitting,50898
Nb3Sn,50898
cost benefit analysis,50898
acute megakaryoblastic leukemia,50898
C. briggsae,50898
difference lists,50898
SNARE proteins,50898
Inertia,50898
chirped pulse amplification,50898
pro-European,50898
enzyme kinetic,50898
net investment,50898
European Structural Funds,50898
FTE,50898
infinitesimal,50898
estimation theory,50898
2 Chronicles 32,50898
RTPCR,50898
multivariate normality,50898
buckle,50898
Transactional leadership,50898
electronic markets,50898
periodontics,50898
quantitative financial,50898
genetic programming,50898
Enschede Fireworks Disaster,50898
normal science,50898
song control system,50898
Spin-orbit coupling,50898
argininosuccinate synthetase,50898
methylamine,50898
educated youth,50898
Actaea,50898
computational complexity,50898
L1s,50898
Rochester,50898
ad valorem,50898
Nicotine dependence,50898
uniform norm,50898
G-banding,50898
constant curvature,50898
diversity management,50898
PGI2,50898
T47D,50898
megakaryocytes,50898
manX,50898
aldolase,50898
Edge,50898
Human Immunology,50898
trk receptor,50898
neurosteroids,50898
Propagator,50898
Furosemide,50898
MPPF,50898
Xenograft,50898
Neurotrophins,50898
Immunogenetics,50898
SHP-1,50898
SHP-2,50898
Pancreatitis,50898
Vitamin C,50898
Septum,50898
allopregnanolone,50898
"3,4-methylenedioxyamphetamine",50898
CMV promoter,50898
molecular medicine,50898
transform fault,50898
Naevi,50898
antibiotic susceptibility testing,50898
disulphides,50898
e75,50898
e83,50898
polycomb-group protein,50898
potential gradient,50898
Fgr,50898
seventh cranial nerve,50898
representative function,50898
Inverse dynamics,50898
solution concept,50898
New Year,50898
STIM,50898
Annealing,50898
drug metabolising,50898
We control,50898
frontal eye fields,50898
cathepsin C,50898
Versa,50898
DB-1,50898
Phosphofructokinase,50898
unwell,50898
pericarp,50898
Polytrichum commune,50898
Linnaeus,50898
bundle-branch block,50898
autonomic systems,50898
Gekko gecko,50898
intelligence test,50898
posterior cruciate ligament,50898
constructive proof,50898
occupational therapist,50898
anaerobic bacteria,50898
alveolar echinococcosis,50898
pi O,50898
DNA fingerprinting,50898
Palliative sedation,50898
Catch 22,50898
confusion range,50898
Aleocharinae,50898
Protein Data Bank,50898
Kawah Ijen,50898
coherent backscattering,50898
PCl3,50898
iron(II) chloride,50898
magnetic resonance spectroscopic imaging,50898
frequency doubling,50898
exponential type,50898
Reperfusion therapy,50898
European Union law,50898
Atomic Force Microscopy,50898
ephrin,50898
public survey,50898
offgas,50898
physiological cross sectional area,50898
guanosine monophosphate,50898
aseptic,50898
decapeptide,50898
Prague,50898
Analog,50898
comic strip,50898
underdamped,50898
Squeak,50898
EIF2B4,50898
isostere,50898
malocclusion,50898
hemicolectomy,50898
Namur,50898
antimitotic agents,50898
Sofia University,50898
Amphidinium carterae,50898
Indigirka river,50898
Eriksen Flanker task,50898
Bosnia-Herzegovina,50898
molecular crystal,50898
Stemflow,50898
middle turbinate,50898
hyponatremia,50898
numerically unstable,50898
Upper Eocene,50898
MIT Press,50898
data augmentation,50898
Gaussian distribution,50898
constructive interference,50898
relativistic effects,50898
Contrast sensitivity,50898
closed-form formula,50898
Messiah,50898
combining forecasts,50898
pentavalent,50898
assistant referee,50898
"1,5-cyclooctadiene",50898
Allied,50898
SERVQUAL,50898
immersive virtual reality,50898
Adenocarcinomas,50898
Clarus,50898
aseismic ridges,50898
CP1,50898
upper gastrointestinal endoscopy,50898
Eysenck Personality Questionnaire,50898
lexical item,50898
real networks,50898
weak convergence,50898
solvent casting,50898
phonological rule,50898
double-well potential,50898
Pavlov,50898
shirk,50898
tryptase,50898
2-pyrrolidone,50898
cerebellopontine angle,50898
autosampler,50898
semaphorin,50898
leukocyte extravasation,50898
pharmacogenomics,50898
antamanide,50898
diethyl ether,50898
energy tax,50898
Dundgovi,50898
These girls,50898
point mass,50898
Central Java,50898
metastatic cancer,50898
glutaronitrile,50898
Uber,50898
penicillin-binding proteins,50898
microscopic polyangiitis,50898
trematode,50898
nidopallium,50898
cariostatic,50898
Agrobacterium rhizogenes,50898
loggerhead turtles,50898
idiopathic short stature,50898
Tai Chi,50898
CC chemokine,50898
hyponym,50898
Braham,50898
Toda lattice,50898
Roermond,50898
Memphis,50898
Middle-East,50898
numerical methods,50898
porphyry copper deposit,50898
Solent,50898
Size exclusion chromatography,50898
capelin,50898
WNT1,50898
OBELIX,50898
Parathion-methyl,50898
strength reduction,50898
actin-binding protein,50898
The Chronic,50898
Reformed churches,50898
isomorphism,50898
emerald,50898
groynes,50898
coordination dynamics,50898
EP1,50898
idarubicin,50898
teflon,50898
neural tube defect,50898
function point,50898
Grignard,50898
bicuspid aortic valve,50898
AcO,50898
translocon,50898
Vedde,50898
animal husbandry,50898
fantasy,50898
Saddam Hussein,50898
uniform distribution,50898
"Austin, Tex.",50898
infant mortality,50898
CHN,50898
Cochrane Centre,50898
Internet Map Server,50898
coniferous forest,50898
Mae Sot,50898
integrative medicine,50898
groupthink,50898
space policy,50898
Computer-assisted surgery,50898
LGB,50898
medullary cavity,50898
community Method,50898
floundering,50898
iconoclasm,50898
P/Q-,50898
Campania Region,50898
GUM,50898
exceptionalism,50898
dissociative reaction,50898
Measurement instruments,50898
sed,50898
TiH2,50898
External validity,50898
succinic semialdehyde,50898
nicotine replacement therapy,50898
flesinoxan,50898
cancer-related fatigue,50898
silo,50898
fluoromethane,50898
indi,50898
mechanism design,50898
Thiopurine S-methyltransferase,50898
molar extinction coefficient,50898
gible,50898
actuarial analysis,50898
secoisolariciresinol diglucoside,50898
likelihood ratio tests,50898
R26,50898
absolutely continuous,50898
"2,2,6,6-Tetramethylpiperidine",50898
neuronal growth cones,50898
Two-dimensional chromatography,50898
Cardiovascular magnetic resonance imaging,50898
alternative service,50898
Gram staining,50898
total body surface area,50898
Malurus,50898
The physician,50898
Roma,50898
Turkish Kurdistan,50898
CACH,50898
normal matrix,50898
equivalent input noise,50898
Pretoria,50898
recommender systems,50898
closure temperature,50898
Freudian,50898
incremental validity,50898
phase-transfer catalyst,50898
Uttar Pradesh,50898
Opperdoes,50898
Java applet,50898
Les Landes,50898
Rainbow,50898
anosognosia,50898
HOF,50898
spring balance,50898
arteria,50898
YFP,50898
tungsten disulphide,50898
mother liquor,50898
Aristotelian,50898
Trail Making test,50898
normal route,50898
1-bromonaphthalene,50898
horror,50898
chlorin,50898
genetic algorithms,50898
Pimephales,50898
clinical breast examination,50898
Margaret Thatcher,50898
prosaccade,50898
Asher,50898
quinidine,50898
DIMES,50898
disulphide bridges,50898
Elastase,50898
estrous cycle,50898
proestrus,50898
brain ischemia,50898
sigma bond,50898
anti-androgen,50898
hyperconjugation,50898
Uracil,50898
PAZ,50898
allochtonous,50898
variables data,50898
carboxylesterase,50898
DFF,50898
open Web,50898
Borel measurable,50898
SIMS,50898
paraphilia,50898
anulus fibrosus,50898
Hart,50898
Little Hungarian Plain,50898
optical parametric oscillator,50898
Campbell diagram,50898
Suicide bombing,50898
bridging veins,50898
2-aminopurine,50898
morpholine,50898
Accelerometer,50898
PSIPRED,50898
Ameralik Fjord,50898
GPCC,50898
International Headache Society,50898
helium-4,50898
globoid cell leukodystrophy,50898
vitellogenesis,50898
liverwort,50898
deep ultraviolet,50898
EMBase,50898
Precambrian,50898
p-nitrophenol,50898
Flavonoids,50898
intradialytic hypotension,50898
feature-rich,50898
isostasy,50898
Hyperuricosuria,50898
Pueblo Indians,50898
papilledema,50898
computerised tomography,50898
soundless,50898
reticuloendothelial system,50898
ubiquitin-proteasome system (UPS),50898
offside rule,50898
trading strategy,50898
water wheel,50898
Instrumental variable,50898
fiber laser,50898
PDMS,50898
mainline Protestant,50898
decamer,50898
Neonatal Intensive Care Unit (NICU),50898
acoustic impedance,50898
gamma probe,50898
V. komodoensis,50898
Festuca arundinacea,50898
numerical aperture,50898
hypercoagulability,50898
waking hours,50898
rational function,50898
pimecrolimus,50898
power function,50898
spin structure,50898
cardiac monitoring,50898
hypernym,50898
extra-pyramidal,50898
cyclohexanol,50898
trigeminal ganglia,50898
decile,50898
Masters & Johnson,50898
SLC2A1,50898
monodromy matrix,50898
membrane attack complex,50898
cardiovascular anomalies,50898
pulser,50898
virtual orbital,50898
metallic bond,50898
ciliary neurotrophic factor,50898
lapilli,50898
P. sylvestris,50898
rehabilitation medicine,50898
Heeswijk,50898
polyphenol,50898
Joint stability,50898
vascular cognitive impairment,50898
Autofluorescence,50898
tristetraprolin,50898
complete space,50898
Acellular,50898
periodic limb movement disorder,50898
Wijk aan Zee,50898
Zung Self-rating Depression Scale,50898
thiabendazole,50898
CLPP,50898
norethisterone acetate,50898
Somers,50898
root canal treatment,50898
Sixth Framework Programme,50898
task decomposition,50898
urethane,50898
Hemothorax,50898
Gaza Strip,50898
intracranial space,50898
street food,50898
Pecten jacobeus,50898
MCPP,50898
Ligurian,50898
hadronization,50898
interferon alfa,50898
Dissolved organic carbon,50898
clomipramine,50898
hyperandrogenemia,50898
mendicant,50898
dopamine antagonist,50898
immunologic tolerance,50898
scanning tunneling microscopy,50898
mollifier,50898
GTF2I,50898
extended phenotype,50898
Allometric,50898
electric power industry,50898
West Friesland,50898
biological imaging,50898
Bernoulli measure,50898
cognitivist,50898
application programming interface,50898
program transformation,50898
RIAS,50898
selective estrogen-receptor modulator,50898
flaxseed,50898
q32,50898
color reconstruction,50898
moral philosophy,50898
Y chromosome,50898
Horsfield,50898
pathogenic Escherichia coli,50898
Amsterdam University,50898
neural efficiency,50898
archetype,50898
regular representation,50898
lire,50898
Pareto-efficient,50898
hexagonal lattice,50898
Boulonnais,50898
heat intolerance,50898
amodiaquine,50898
Cantor set,50898
da Vinci surgical system,50898
first-person,50898
superstition,50898
oil analysis,50898
FeMo-cofactor,50898
progressive scoliosis,50898
Smalltalk,50898
bird reserve,50898
chymase,50898
republicanism,50898
invisible hand,50898
Varian,50898
acipimox,50898
paliperidone,50898
Anderson localization,50898
Barnabas,50898
cetyl,50898
self-theory,50898
cyclic adenosine monophosphate,50898
Pressure gradient,50898
Manometry,50898
Vermont,50898
Landes forest,50898
1-fluoronaphthalene,50898
Cimicifuga,50898
spinal canal,50898
ubiquitin B,50898
Baroreflex,50898
Pyrene,50898
protonophore,50898
stemflow,50898
price-fixing,50898
lumbar vertebrae,50898
light-harvesting protein complexes,50898
space exploration,50898
Mallotus villosus,50898
microgrid,50898
topographer,50898
direct tax,50898
Virilization,50898
natural gradient,50898
beta amyloid,50898
overlapping genes,50898
pain management;,50898
special effort,50898
Yesterday,50898
ArcIMS,50898
Leu-enkephalin,50898
calcium chloride,50898
multilevel governance,50898
edentate,50898
global mental health,50898
cortical blindness,50898
Lower Danube,50898
Venta,50898
Caspar David Friedrich,50898
testicle,50898
East Java,50898
hyperspace,50898
"1,3-cyclohexadiene",50898
Intertrial priming,50898
MMPI,50898
certified reference material,50898
gocd,50898
videotape,50898
arterial insufficiency,50898
Subjective experience,50898
Gulf War,50898
chlorophyllide,50898
Functional skills,50898
conformal invariance,50898
prefrontal lobe,50898
microbiologist,50898
functional psychology,50898
pseudarthrosis,50898
Entrainment,50898
Laplace-Stieltjes Transform,50898
SbCl,50898
class variable,50898
hematemesis,50898
genital HPV infection,50898
electromigration,50898
EP4,50898
Qinghai,50898
International Tundra Experiment,50898
loam,50898
wage curve,50898
nociception,50898
Stark spectroscopy,50898
cream skimming,50898
Khibiny Mountains,50898
massively parallel processing,50898
plantar flexors,50898
Goldberg,50898
control key,50898
joint probability function,50898
intraarticular,50898
molecular theory,50898
matrix norm,50898
psychiatric nurse,50898
Oral Pathology,50898
paternalist,50898
hexafluoroacetylacetone,50898
GroEL,50898
colonic microflora,50898
Hexabromocyclododecane,50898
Nash Equilibrium,50898
mixed forest,50898
A feasibility study,50898
fundamental frequency,50898
footpad,50898
heavy Rydberg system,50898
Saudi Arabia,50898
structural holes,50898
sigma model,50898
meronym,50898
n-back,50898
trans-acting factor,50898
Ionic,50898
Holler,50898
Eragrostis,50898
molecular bond,50898
virtual light,50898
abdominal distention,50898
4-1BB ligand,50898
Spencer,50898
mitogens,50898
Fore-Caucasus,50898
phase matching,50898
cresol,50898
tomographical,50898
mathematical system theory,50898
heterogamous,50898
SOV,50898
parity nonconservation,50898
animal trial,50898
Routledge,50898
SPINK1,50898
SNARE protein,50898
measles,50898
USPHS,50898
Green Book,50898
voluntary euthanasia,50898
electrolysis,50898
Neo-liberal,50898
nonlinear resonance,50898
Superman,50898
Netwerk,50898
quality circle,50898
fiqh,50898
operating temperature,50898
recombination hotspot,50898
solvatochromism,50898
Celtic field,50898
HSAB theory,50898
Monk,50898
martingales,50898
The wasps,50898
INH,50898
IFCC,50898
The tourist,50898
IPv6,50898
GM1 gangliosidosis,50898
Oedema,50898
IDF,50898
skip lesion,50898
infrared thermography,50898
trapezoid,50898
Enzyme inhibition,50898
GRK,50898
sulfonium,50898
Laser-induced fluorescence,50898
ECoS,50898
TLX1,50898
Enschede,50898
cDNA libraries,50898
speech corpus,50898
Hanover,50898
iron-oxo,50898
osteochondrodysplasia,50898
Chain Reaction,50898
potential temperature,50898
MGO,50898
petrographic microscope,50898
liquid chromatograph,50898
Bacteroides fragilis,50898
NESTOR,50898
arylesterase,50898
Callista chione,50898
pitchfork,50898
Scenario analysis,50898
external carotid artery,50898
Shenzhen,50898
"2,3-diphosphoglycerate",50898
hydrodistillation,50898
intermodal,50898
Conley,50898
logical languages,50898
OMW,50898
hydrazide,50898
non-equilibrium thermodynamics,50898
electric dipole,50898
playing positions,50898
Smeared,50898
The visitors,50898
Bernoulli process,50898
Chrysococcyx,50898
wetting layer,50898
Steady-state concentrations,50898
ICP-OES,50898
Vasculitis,50898
trial wave function,50898
SHRIMP,50898
soil contamination,50898
biliary tract,50898
Priabonian,50898
cyclohexanone,50898
apocalyptic literature,50898
Zirconium-89,50898
IrO2,50898
time perception,50898
selfadjoint,50898
Colonoscopy,50898
WISP1,50898
Wayside,50898
breast examination,50898
bilin,50898
leptomycin,50898
Danube,50898
Contrast resolution,50898
The nurses,50898
monoid,50898
egg yolk,50898
Ulrich Kohlenbach,50898
corona discharge,50898
Independent Component Analysis,50898
deltoid muscle,50898
score function,50898
geophytes,50898
Farnsworth-Munsell 100 Hue Test,50898
computer graphics,50898
Ames strain,50898
isochorismate synthase,50898
Sylvia,50898
Marx,50898
apodization,50898
Teaching hospital,50898
medical prescription,50898
FASTA,50898
muramyl dipeptide,50898
pyridinium chloride,50898
Pneumococcal vaccination,50898
thallium-201,50898
hyperoxaluria,50898
Radio Data System (RDS),50898
Dutch Studies,50898
structural approach,50898
deterministic system,50898
Gro Harlem Brundtland,50898
c-Jun N-terminal kinase (JNK),50898
Chiropractic,50898
LOEC,50898
local field,50898
trading venue,50898
estrous,50898
plane-wave,50898
Obstacle avoidance,50898
amyloid-beta precursor protein,50898
industrial policy,50898
Organochlorine,50898
pressure vessel,50898
MA-na,50898
Asturias,50898
articular disc,50898
post-processes,50898
chloromethane,50898
Lolium perenne,50898
OpenGIS,50898
Gaudin,50898
Positive end-expiratory pressure,50898
microchannel plate,50898
Genotype,50898
habitat fragmentation,50898
Talia,50898
Faeroe Islands,50898
infinitesimal generator,50898
Retinoids,50898
ankle brace,50898
common femoral artery,50898
lake centre,50898
pupillary dilatation,50898
spectral measure,50898
tracheophytes,50898
Purcell,50898
Petrolatum,50898
QUOROM,50898
dup,50898
Alcohol oxidase,50898
C1r,50898
model checker,50898
future life,50898
electronic correlation,50898
River Waal,50898
isotopic labeling,50898
Centraal Bureau voor de Statistiek,50898
CBP/p300,50898
Noradrenaline,50898
dental hygienist,50898
24hours,50898
joint powers,50898
Psycinfo,50898
atomic mass unit,50898
clinostat,50898
Chironomid,50898
sodium hydroxide,50898
intestinal ischemia,50898
Circular dichroism,50898
neurosporene,50898
autocovariance function,50898
Guilford Press,50898
sodic soils,50898
Guido Knopp,50898
Three investigators,50898
A priori,50898
pectin,50898
anatase,50898
covaries,50898
MAPK cascades,50898
utilitarianism,50898
knowledge economies,50898
directed evolution,50898
eds,50898
Amazon Basin,50898
photoelectrolysis,50898
2 reasons,50898
microsatellites,50898
bone marrow stroma,50898
A 48,50898
Concerta,50898
EMMA,50898
Nord Pool,50898
16S ribosomal RNA,50898
phosphatidate phosphatase,50898
sensation seekers,50898
refraction error,50898
bone sialoprotein,50898
mumps,50898
neurogenic pain,50898
endometrial biopsy,50898
utilization distribution,50898
Voxel,50898
network society,50898
autoradiographs,50898
Purkinje cell,50898
almandine,50898
chromosomes 6,50898
anorectal manometry,50898
SMTP,50898
myelin proteolipid protein,50898
Vocal tract,50898
Atlantic Coastal Plain,50898
low-fat diet,50898
Pulmonary arteries,50898
human security,50898
general health questionnaire,50898
GeneChip,50898
Web Map Server,50898
Vincristine,50898
kinetic theories,50898
enterodiol,50898
benzonitrile,50898
Karyotyping,50898
developmental abnormality,50898
Kidney failure,50898
Shale Gouge Ratio,50898
per-capita emissions,50898
soft palate,50898
HFE,50898
DNA intercalator,50898
color mapping,50898
metabolic equivalent,50898
humanitarian intervention,50898
osteophytes,50898
hadith,50898
egg white,50898
restoring force,50898
finite-difference method,50898
Current Contents,50898
digital X-ray radiogrammetry,50898
hsp70,50898
boundary-value problem,50898
reproducing kernel,50898
posttranslational modification,50898
cervical dilation,50898
Ethylene,50898
Dresden,50898
log-concave,50898
oceanic anoxic event,50898
DARE,50898
proprietary protocol,50898
maximum-likelihood estimator,50898
hip prostheses,50898
Multiple Sclerosis Research,50898
wrist-joint,50898
Lower Palaeolithic,50898
They live,50898
Molecular structures,50898
"Bam, Iran",50898
co-morbid disorders,50898
decarboxylase,50898
GCXGC,50898
holonym,50898
Fock matrix,50898
isophote,50898
Hadley,50898
Gondwanaland,50898
DIBAL,50898
areola,50898
chlorosilane,50898
financial innovation,50898
The examiner,50898
atomic force microscope,50898
Desulfovibrio,50898
1918 influenza,50898
mid-sagittal,50898
VLDL receptor,50898
SCBA,50898
image enhancement,50898
center manifold,50898
binomial test,50898
homophile,50898
HSQC,50898
Corporatism,50898
Euler-Lagrange equation,50898
pancreatic inflammation,50898
saphenous veins,50898
TLX3,50898
aspect-oriented programming,50898
selenium dioxide,50898
anxiogenic,50898
SOHO,50898
juvenile myelomonocytic leukemia,50898
Stern-Gerlach,50898
T-matrix,50898
neurophysiologist,50898
Latina,50898
circularly polarized light,50898
sporopollenin,50898
C1s,50898
Aegean Sea,50898
CCND1,50898
Tnfrsf1a,50898
Sphingomonas,50898
cleft lip/palate,50898
revealed preference,50898
Rupelian,50898
Nos,50898
g-factor,50898
muscarine,50898
dendrogram,50898
strong convexity,50898
musculoskeletal disorder,50898
vacuum-assisted closure,50898
jump shot,50898
Lumbricus terrestris,50898
Kusel,50898
emergency medicine,50898
defecography,50898
primordialist,50898
fructosamine,50898
sequence database,50898
Luce Irigaray,50898
diisopropylethylamine,50898
ESCO2,50898
tetralin,50898
Strauss,50898
regime theory,50898
ACB,50898
Cochrane Review,50898
pascals,50898
double negative,50898
Cognitive Disorder,50898
tarsorrhaphy,50898
polycomb-group,50898
clinical study design,50898
The mice,50898
Arctic Ocean,50898
parsimony,50898
Jak,50898
common interface,50898
pressure solution,50898
dental nurse,50898
Intraperitoneal injection,50898
phosphenes,50898
fucoxanthin,50898
cold trap,50898
laboratory animal,50898
rhizomelia,50898
Greenland plate,50898
Glycogen synthase kinase 3,50898
canaliculi,50898
"extranodal NK/T-cell lymphoma, nasal type",50898
The Proposal,50898
parasitemia,50898
ALN,50898
Silicon carbide,50898
paleontological,50898
para isomer,50898
cuprammonium rayon,50898
rescue therapy,50898
Multiplex ligation-dependent probe amplification,50898
Absorption spectra,50898
RAROC,50898
carbon intensity,50898
hamstring muscles,50898
Dracula,50898
low-angle shot,50898
cox,50898
ectoparasitic,50898
periaqueductal gray,50898
signal sequence,50898
Surface roughness,50898
free spectral range,50898
taxol,50898
midpoint potential,50898
radiochemistry,50898
rotamer,50898
materialist,50898
headstrong,50898
LCK,50898
second-language acquisition,50898
TSO,50898
homeomorphism group,50898
ribosome-nascent chain complex,50898
phreatic,50898
polycystin-1,50898
Logit,50898
sample variance,50898
electron nuclear double resonance,50898
Po Plain,50898
rheumatic heart disease,50898
stoke,50898
Amersfoort,50898
drug-resistant epilepsy,50898
prognostics,50898
oxychloride,50898
Maia,50898
allylamine,50898
Rhizophagus irregularis,50898
Extreme ultraviolet,50898
image texture,50898
putative gene,50898
nocodazole,50898
uronic acids,50898
threonine-,50898
free range,50898
DPPH,50898
empirical distribution function,50898
nuclear membrane,50898
inductive dimension,50898
ring chromosome,50898
inferior turbinate,50898
faceted browser,50898
parity violation,50898
In C,50898
signed volume,50898
minimum bactericidal concentration,50898
WTO,50898
DERA,50898
Kohn-Sham DFT,50898
actinolite,50898
test cross,50898
vinegar,50898
Southern Oscillation Index,50898
buccolingually,50898
southern shift,50898
normal force,50898
phenylalanine hydroxylase,50898
Arnold Bocklin,50898
OX1,50898
supercoiled DNA,50898
Delaware Bay,50898
halo occupation distribution,50898
Homotopy,50898
coal mining,50898
trocar,50898
Freedent,50898
parietal bone,50898
Santa Barbara,50898
SA node,50898
tetrabutylammonium,50898
epidemiologist,50898
breve,50898
Santorini,50898
ultrasound scan,50898
sialoadhesin,50898
biofortification,50898
Nuclear DNA,50898
atmospheric model,50898
part-of,50898
fellow student,50898
sodium sulfate,50898
spontaneous abortion,50898
pituitary hormone deficiencies,50898
aerial photography,50898
guerrilla,50898
cyclooctene,50898
Mediterranean vegetation,50898
calvarium,50898
BRIP1,50898
phenocryst,50898
RGS1,50898
Romani,50898
superficial femoral artery,50898
potassium iodide,50898
guadua,50898
FOD,50898
common peroneal nerve,50898
GTAP,50898
image artifact,50898
High peak,50898
solid phase microextraction,50898
The intended,50898
5-alpha reductase,50898
thermal analysis,50898
vesicular glutamate transporter,50898
pi-interactions,50898
HOV,50898
AH4,50898
structural trap,50898
amlodipine,50898
VPg,50898
restrictive dermopathy,50898
AMSTERDAM DENSITY FUNCTIONAL,50898
MOLT-4,50898
phi-phi,50898
paleographical,50898
cache coherence,50898
enzyme inhibitor,50898
spessartine,50898
thermophysiology,50898
pathogen-associated molecular patterns,50898
DOTA,50898
TVG,50898
midluteal phase,50898
convex combination,50898
methylesterase,50898
Niagara,50898
mirror symmetry,50898
fura-2,50898
countertransference,50898
orbital angular momentum quantum number,50898
ecological factor,50898
salicylaldehyde,50898
neo-Kantianism,50898
polysaccharide vaccine,50898
genetic determinism,50898
Monoterpenes,50898
SOX2,50898
Tortuosity,50898
C3 protein,50898
etiolated,50898
psychological profiling,50898
consociationalism,50898
Central Zone,50898
Stem cell transplantation,50898
power exchange,50898
fragility fracture,50898
Eddington luminosity,50898
wedge resection,50898
Catalepsy,50898
contractile element,50898
D lines,50898
tetracyanoethylene,50898
glutamate-cysteine ligase,50898
DCB,50898
net national income,50898
rising power,50898
protein design,50898
lithologies,50898
bisphenol-A,50898
antral follicle,50898
agonistic behaviour,50898
donor lymphocyte infusion,50898
CDX2,50898
Nicotinamide adenine dinucleotide,50898
Zuid-Holland,50898
acenaphthylene,50898
macroglobulin,50898
mineral supplement,50898
Reinhart Heinrich,50898
Procrustes,50898
leave-one-out cross-validation,50898
Limpopo,50898
Full term,50898
dynamic loading,50898
high pressure liquid chromatography,50898
maxillary bone,50898
biodiverse,50898
osteosclerotic,50898
Bukharan Jewish,50898
organ culture,50898
Vermeer,50898
embedded system,50898
Spinal anesthesia,50898
single-strand conformation polymorphism,50898
Flow measurement,50898
hydrazone,50898
purine metabolism,50898
large cell neuroendocrine carcinoma,50898
alkali metal,50898
Coimbra,50898
Late Aptian,50898
microwave spectroscopy,50898
MIS 11,50898
N-acetyl-p-benzoquinoneimine,50898
Membrane curvature,50898
abstract expressionist,50898
Type 11,50898
Penrose,50898
Drude model,50898
rumen,50898
Cytosine,50898
indirect pathway,50898
JRA,50898
equatorial plane,50898
Lorenz equations,50898
group 14,50898
Azorean,50898
killer T cells,50898
Isopods,50898
"1,5-pentanediol",50898
Cardiovascular fitness,50898
Intertropical Convergence Zone (ITCZ),50898
ubiquitin ligase,50898
Hemipelvectomy,50898
Danon Disease,50898
citrullination,50898
"N,N-dimethylformamide",50898
pyridoxine deficiency,50898
integrated pest management,50898
chirp,50898
vascular endothelial growth factor receptors,50898
IL-4 receptor,50898
Southern China,50898
Alkyne,50898
American Psychological Association,50898
footwall,50898
Coolidge,50898
epsilon calculus,50898
arthrosis,50898
micronized,50898
endomysium,50898
HTR2B,50898
Universal Testing Machine,50898
Nitrosomonas europaea,50898
transcendental philosophy,50898
Ensemble Kalman Filter,50898
physostigmine,50898
epithelioid cells,50898
n-propanol,50898
alveolus,50898
common mode rejection ratio,50898
P. pinaster,50898
Estetrol,50898
ideal gas law,50898
orthochromatic,50898
selected reaction monitoring,50898
buoyant mass,50898
angular momentum quantum number,50898
Pennsylvanian,50898
Friedman test,50898
DAIME,50898
pattern recognition receptors (PRRs),50898
Pulmonary oedema,50898
low-coverage,50898
oxazolone,50898
freeze drying,50898
ing,50898
facial eczema,50898
slow attack,50898
valve repair,50898
maxillofacial surgeon,50898
sustainable biofuel,50898
OX2,50898
mesiodistally,50898
pulmonary function testing,50898
peer pressure,50898
object-oriented programming,50898
Cardiac cycle,50898
sodium bicarbonate,50898
unitary matrices,50898
dredging,50898
BioDetection Systems,50898
MPL,50898
osteoinduction,50898
fumarate hydratase,50898
myotomal,50898
Oxfordshire,50898
Doppler ultrasonography,50898
AeroCom,50898
Biacore,50898
Glomus,50898
uterine atony,50898
Ford,50898
critical density,50898
apophasis,50898
azoxymethane,50898
query expansion,50898
elater,50898
bequest motive,50898
coleoptiles,50898
geriatric medicine,50898
bone marrow neoplasms,50898
food fortification,50898
direct mode,50898
flexible response,50898
Caspian,50898
Subtilisin,50898
Hypogonadotropic hypogonadism,50898
Phengite,50898
centrum semiovale,50898
water pollution,50898
brachydactyly,50898
developmental disorder,50898
seminal vesicle,50898
The young adults,50898
organotins,50898
bass,50898
unsaturated zone,50898
mass flux,50898
fungicide,50898
vertebral venous system,50898
Ephedra sinica,50898
sprint cycling,50898
Calamagrostis epigejos,50898
Thrombolysis In Myocardial Infarction,50898
persistence length,50898
ACTH stimulation test,50898
NCI-H460,50898
propagule,50898
normal cone,50898
Reflex Sympathetic Dystrophy,50898
periodogram,50898
acyl carrier protein,50898
default reasoning,50898
Mount Kenya,50898
Pulmonary surfactant,50898
optical amplification,50898
Comparative genomic hybridization,50898
actor-observer bias,40212
Scanning tunneling microscopy,50898
terminal ileum,50898
copper proteins,50898
common law,50898
spatial economic analysis,50898
M13,50898
Gallium-67,50898
Potentiometric titration,50898
B777,50898
conscious sedation,50898
corticosteriods,50898
continuous hemofiltration,50898
Kohlberg,50898
Videoconferencing,50898
particle-induced X-ray emission,50898
photooxygenation,50898
adductor pollicis muscle,50898
Ethylene dibromide,50898
supercurrent,50898
3' untranslated regions,50898
Bisley,50898
Tabernaemontana divaricata,50898
Deuterium,50898
transport phenomena,50898
maximum androgen blockade,50898
Resonance Raman spectroscopy,50898
transcellular transport,50898
Striga hermonthica,50898
Catharanthus roseus,50898
Bradyrhizobium,50898
epidermolysis bullosa,50898
Tn10,50898
Lateral epicondylitis,50898
occult metastases,50898
combined transport,50898
polar molecule,50898
billiards,50898
loganin,50898
data parallelism,50898
logic programs,50898
familial dysbetalipoproteinemia,50898
Adductor pollicis muscle,50898
astaxanthin,50898
thiodiglycol,50898
alfalfa mosaic virus,50898
periodontal pathogen,50898
quadruples,50898
Nd-YAG laser,50898
active euthanasia,50898
uteroglobin,50898
catecholamine systems,50898
microemulsion,50898
Hereditary nonpolyposis colorectal cancer,50898
vitamin K1,50898
Hanson,50898
Gonadotropin,50898
basal forebrain,50898
Kasabach-Merritt Syndrome,50898
prior distribution,50898
Optimality theory,50898
HPD,50898
Hyperinsulinemia,50898
Bullous,50898
optical phase conjugation,50898
Exchange theory,50898
parapharyngeal space,50898
metal hydride,50898
field emission microscopy,50898
Condensation,50898
stochastic control,50898
K-R,50898
C terminal,50898
Pilbara Craton,50898
kilodalton,50898
Micellar electrokinetic chromatography,50898
Co3O4,50898
infinitely divisible,50898
Sarcoidosis,50898
potentiometric,50898
Sumatriptan,50898
Human leukocyte antigen (HLA),50898
XIa,50898
Adaptive behavior,50898
simian retrovirus,50898
deep seismic sounding,50898
tidal marsh,50898
Ceftazidime,50898
high-temperature superconductor,50898
amylin,50898
PMD,50898
pulse compression,50898
thiourea,50898
Tyrosinemia,50898
Hankel,50898
AM1,50898
Microparticles,50898
Tobacco rattle virus,50898
Three fish,50898
Lippmann-Schwinger equation,50898
convex function,50898
4-Aminopyridine,50898
Polarimetry,50898
errors-in-variables,50898
Bryostatin,50898
leucoplakia,50898
rotifer,50898
LGI1,50898
seismic refraction,50898
adenosine receptor,50898
Muhammad Ali,50898
Late Eocene,50898
Disconnected space,50898
2013 Super Rugby season,50898
voltage-current characteristic,50898
Trace metal,50898
Phenylene,50898
Leprechaunism,50898
Tobacco mosaic virus,50898
Genetic diversity,50898
Ketanserin,50898
software maintenance,50898
miniature pigs,50898
pulmonary surfactant,50898
G1 cyclins,50898
Leucine,50898
Ca2+/calmodulin-dependent protein kinase,50898
simplicial polyhedron,50898
methyl methacrylate,50898
tachistoscopic,50898
Cultural diversity,50898
electron-positron annihilation,50898
edge cities,50898
lobenzarit,50898
decidability,50898
earth scientist,42711
Thoracoscopy,50898
anisoles,50898
intertemporal choice,50898
financial institution,50898
Chronic venous insufficiency,50898
glucoamylase,50898
tenser,50898
quotative,50898
Neurotoxicity,50898
neuroleptics,50898
paedophile,50898
Daunorubicin,50898
radial symmetry,50898
Theophylline,50898
Intrauterine growth retardation,50898
enzymology,50898
Horney,50898
TISS,50898
Lutra,50898
Enantioselectivity,50898
generalised cost,50898
colligative properties,50898
decay constant,50898
intermediate representation,50898
ibopamine,50898
Papaverine,50898
Enantiomers,50898
Ground penetrating radar,50898
Luwu,50898
homofermentative,50898
Functional magnetic resonance imaging,50898
kappa opioid receptor,50898
ebselen,50898
Proof-number search,50898
Tributyltin,50898
relative Validity,50898
MAGPIE,50898
Ferrante,40385
Phenols,50898
mu-3,50898
Gargano Promontory,50898
irrational number,50898
Hypotrichosis,50898
Glycoprotein,50898
MS mode,50898
Aries,50898
role theory,50898
Omeprazole,50898
Lycra,50898
spectral function,50898
Hysteresis,50898
current ripples,50898
guided tissue regeneration,50898
isomerisation,50898
two-phase flow,50898
fixed assets,50898
Striga,50898
Hyderabad,50898
polyglandular,50898
"1,2-Dibromoethane",50898
Mediterranean Ridge,50898
tacticity,50898
natural kind,50898
exchange economy,50898
Social identity theory,50898
Regurgitation,50898
Seismic reflection,50898
Sokolov,50898
deoxyuridine,50898
Bosporus,50898
Ajmalicine,50898
medical examiner,50898
cycloheptane,50898
Hydrogenation,50898
Antimalarials,50898
iridoid,50898
Ecotoxicology,50898
Benznidazole,50898
human anatomy,50898
selenocysteine,50898
Conditionality,50898
benzothiazoles,50898
DBU,50898
leaf mould,50898
Evolutionary ethics,50898
Rietveld refinement,50898
crosswalk,40434
FMOC,50898
Brain function,50898
correspondence principle,50898
shared memory,50898
International debates,50898
Seligman,50898
germa,50898
dynamic relaxation,50898
dielectric relaxation,50898
Ethylene oxide,50898
Oslo Graben,50898
reflex sympathetic dystrophy,50898
complete heart block,50898
human papillomavirus infection,50898
polythene,50898
Juniperus brevifolia,50898
Argyranthemum,50898
bijection,50898
High density lipoprotein,50898
Fluid inclusions,50898
benzimidazole,50898
Thrust tectonics,50898
porcelain inlays,50898
radiological accident,50898
seedbed,50898
D17,50898
Rubia tinctorum,50898
Biocompatibility,50898
deviant behavior,50898
closed head injury,50898
liquid crystals,50898
Maternal deprivation,50898
Taxol,50898
dichroic,50898
Reactive oxygen species,50898
semimembranosus,50898
osteoblastoma,50898
Thymidylate synthase,50898
Sharpless asymmetric epoxidation,50898
Thoracic sympathectomy,50898
Recoil,50898
Go-Moku,50898
coronal loops,50898
real algebraic varieties,50898
Bleomycin,50898
particle beam,50898
The view,50898
Sialoadhesin,50898
autogenic training,50898
supraventricular tachycardia,50898
connectionism,50898
Cell fusion,50898
TCP/IP,50898
Callus,50898
International Mineralogical Association,50898
North Norfolk,50898
computer display,50898
Chaerophyllum,50898
SSCI,50898
linear optical,50898
speaker recognition,50898
bT,50898
Sogn og Fjordane,50898
Hugo de Vries,50898
asialoglycoprotein receptor,50898
Replantation,50898
Tulipa gesneriana,50898
Senile plaques,50898
NIS,50898
infinite matrix,50898
Traumatic injury,50898
semigroup,50898
orthoester,50898
1-propanol,50898
hexyl,50898
Pemphigus,50898
Wilga,50898
bocasan,50898
Functional imaging,50898
Irritable Bowel Syndrome,50898
Sarcomatoid carcinoma,50898
finite difference,50898
Chondrosarcoma,50898
Minimax,50898
prohormone convertase 2,50898
metamorphic facies,50898
maternal deprivation,50898
Fullerene,50898
Oral contraceptives,50898
Cinchona,50898
soft tissue sarcoma,50898
Nepali,50898
pelvic examination,50898
Cryosurgery,50898
diyne,50898
Hypericum,50898
Prostate specific antigen,50898
polyaromatic hydrocarbons,50898
temperature jump,50898
isotachophoresis,50898
strictosidine,50898
anterograde amnesia,50898
Artificial neural networks,50898
organotin compounds,50898
carbonatite,50898
diphenylphosphine,50898
hypothenar,50898
dissociative amnesia,50898
Topoisomerase I,50898
Magic angle spinning,50898
15-crown-5,50898
beclomethasone,50898
haemocytes,50898
olanzapine,50898
nucleotide analogue,50898
NSG,50898
Hermitian,50898
Tetanus,50898
extensor indicis proprius,50898
diaphragmatic breathing,50898
SKF,50898
Norwegian Sea,50898
Anti-gliadin antibodies,50898
phosphodiester bonds,50898
CIM,50898
Humulus lupulus,50898
Gradient elution,50898
Linum flavum,50898
street sweeper,50898
Polyglutamylation,50898
contrast medium,50898
trigeminal motor nucleus,50898
Yttrium,50898
transition metal oxides,50898
farnesyl pyrophosphate,50898
Centocor,50898
face-centered-cubic,50898
synkinesis,50898
DNA gyrase,50898
Ross Sea,50898
replicase,50898
Calamagrostis epigeios,50898
excess demand,50898
nonequilibrium thermodynamics,50898
halogenated organic compounds,50898
myosin heavy chains,50898
silicone rubber,50898
vagotomy,50898
Interleukin-1 receptor,50898
Tarfaya,50898
transacylase,50898
visceral organ,50898
basis set superposition error,50898
outpatient surgery,50898
actinomycin D,50898
Santo Antao,50898
germanium,50898
storage ring,50898
Trichinella spiralis,50898
malingering,50898
hockey stick,50898
mydriatic,50898
scattering matrix,50898
normal pressure hydrocephalus,50898
chemical reactor,50898
Prometheus,50898
random phase approximation,50898
MAdCAM-1,50898
Bacterial infection,50898
Rubio,50898
network externalities,50898
Langerhans' cell histiocytosis,40606
megavoltage,50898
Brain damage,50898
Muscle weakness,50898
clubfeet,50898
median algebra,50898
pulsed field gradient,50898
Micromeria,50898
exoplanet,50898
mime,50898
hydroxylapatite,50898
small cell lung carcinoma,50898
transmembrane potential,50898
distributed programming,50898
identity operator,50898
structural estimation,40621
Hui,50898
barbell,50898
microglial cell,50898
Leydig cells,50898
9P,50898
cyproheptadine,50898
greater omentum,50898
ethnocentrism,50898
phytotoxin,50898
dolerite,50898
Beverwijck,50898
"1,2-dibromoethane",50898
Electron scattering,50898
Physician-assisted suicide,50898
liberalism,50898
Hornblende,50898
meta-knowledge,40638
Food waste,50898
community-based rehabilitation,50898
non-monotonic reasoning,50898
adsorption isotherm,50898
L-lysine,50898
Pimpinella,50898
ciliate,50898
Tabernaemontana pandacaqui,50898
SGD,50898
hematopoietic cell,50898
Inorganic phosphate,50898
multimodal transport,50898
Allyl chloride,50898
TiF3,50898
Hormonal therapy,50898
densitometer,50898
Zymomonas,50898
probability matching,50898
alpha-oxidation,50898
Cytotoxic T lymphocytes,50898
juggling,50898
gene duplication,50898
roquefortine C,50898
Amifostine,50898
Transitivity,50898
Electrocardiography,50898
M-8,50898
centripetal,50898
conization,50898
elongation factor Tu,50898
N-iodosuccinimide,50898
guile,50898
Chloroform,50898
Volcanism,50898
street children,50898
QCISD,50898
corrinoids,50898
colonoscope,50898
microwave radiometer,50898
inferential statistics,50898
UvrABC endonuclease,50898
size-weight illusion,50898
Phosphomevalonate kinase,50898
Electrical impedance,50898
Cardiovascular diseases,50898
Genomic sequence,50898
faba bean,50898
gliosarcoma,50898
Frank-Starling mechanism,50898
havoc,50898
Stokes parameters,50898
THL,50898
Oenite,50898
hypocholesterolemia,50898
bulimic,50898
Growth factor,50898
lacrimal,50898
thymine dimer,50898
AVIRIS,50898
Rhodopsin,50898
isolated limb perfusion,50898
Flavonols,50898
Toluene,50898
algebraic variety,50898
graph rewriting,50898
chalcone synthase,50898
bucca,50898
blast fishing,50898
Lagrange Multiplier,50898
D-arabinose,50898
Leukemia inhibitory factor,50898
Anti-oxidant,50898
Operationalization,50898
static light scattering,50898
ERS-1,50898
A-DNA,50898
Tonometry,50898
mau,50898
phosphaalkene,50898
Data extraction,50898
affine space,50898
arachnoid cyst,50898
flexural isostasy,50898
Social movement,50898
Sports injuries,50898
Linkage disequilibrium,50898
Vena cava,50898
Plasma cell,50898
hidden object,40727
convergent synthesis,50898
ectomesenchymal chondromyxoid tumor,50898
Programmed cell death,50898
PyBOP,50898
brachiopod,50898
dual-career couples,40733
HFIP,50898
dendrimer,50898
The replacement,50898
relative biological effectiveness,50898
Burimamide,50898
quantum tunneling,50898
Thermography,50898
global flood,50898
Icodextrin,50898
Demyelination,50898
CNH,50898
Markov Arrival Process,50898
diagram techniques,50898
genital reassignment surgery,50898
rat lines,50898
DDB,50898
De Finetti,50898
nylon,50898
duration gap,50898
antihistamine,50898
distributed objects,50898
emotional insecurity,50898
discourse markers,50898
telencephalon,50898
radial distribution function,50898
PAQ,50898
Steric effects,50898
hydrothermal metamorphism,50898
Frasnian,50898
SERCA1,50898
High-performance liquid chromatography,50898
QTI,50898
sodium arsenite,50898
HSDS,50898
gynecomastia,50898
avoparcin,50898
canthaxanthin,50898
strewn field,50898
APECED,50898
conventional memory,50898
phenethyl,50898
bullae,50898
granulocyte colony stimulating factor,50898
optical fibre,50898
"academic Press, Inc.",50898
VP-16,50898
SAN,50898
data infrastructure,50898
kinetic theory,50898
minimus,50898
E28,50898
methylene group,50898
rock mechanics,50898
American Sociological Review,50898
dinitrophenol,50898
levier,50898
H5,50898
overthrust,50898
2 On,50898
monazite,50898
lavender,50898
Bouguer gravity anomaly,50898
A-type,50898
angular momentum operator,50898
Oncorhynchus,50898
30S,50898
Myrinet,50898
The relapse,50898
follicular mucinosis,50898
high-dose estrogen,50898
group 15,50898
ribonuclease,50898
patient diary,50898
Lightspeed,50898
Dewar-Chatt-Duncanson model,50898
RSTS,50898
symbolic computation,50898
Xyl,50898
paracrystals,50898
ICW,50898
spinal cord compression,50898
BMP-7,50898
pyrethroids,50898
TPG,50898
selectable marker,50898
sarcoplasmic reticular,50898
illuminator,50898
PNC,50898
LH receptor,50898
glyoxal,50898
cytochrome P450 reductase,50898
4-nitroaniline,50898
HRG,50898
NASD,50898
Rhodamine,50898
secologanin,50898
sleep studies,50898
skylight,50898
Fourier series,50898
paleosurface,50898
eltoprazine,50898
DNase,50898
simple cell,50898
ajmalicine,50898
dystopia,50898
Bullae,50898
Ar-42,50898
atheromatous plaques,50898
R100,50898
aptamer,50898
3-methylhistidine,50898
Springer,50898
malignant neoplasm,50898
GRIP,50898
alcoholic ketoacidosis,50898
cordatum,50898
Droog Design,50898
local anaesthetic,50898
specific storage,50898
Sulindac,50898
titanite,50898
headward erosion,50898
Tamm-Horsfall protein,50898
start codon,50898
relaxation oscillation,50898
BMP-3,50898
preprohormone,50898
solarium,50898
transposon tagging,50898
amifostine,50898
capability maturity model,50898
photocurrent,50898
phosphomevalonate kinase,50898
nimodipine,50898
S100,50898
ASOR,50898
Insulitis,50898
oxirane,50898
propamidine,50898
geraniol,50898
analgetics,50898
goserelin,50898
cruciform,50898
Shine-Dalgarno,50898
angiopathy,50898
bq,50898
EBB,50898
temperature coefficient,50898
optical thickness,50898
continuous spectrum,50898
palaeosol,50898
scintillation counting,50898
Publication bias,50898
Ar+,50898
gravity anomaly,50898
sympathectomy,50898
Dutch Design,50898
VBG,50898
monoplane,50898
Reh,50898
The hot spot,50898
premedication,50898
Dormagen,50898
JDK,50898
hypotaurine,50898
mequitazine,50898
DTH,50898
benzothiazole,50898
ABTS,50898
gingival recession,50898
SENS,50898
"2,4-D",50898
auricle,50898
standard enthalpy,50898
thermal hysteresis,50898
South Pacific,50898
Chapman & Hall,50898
ankyrin,50898
hemolymph,50898
covering dimension,50898
petroleum ether,50898
topol,50898
fundoscopy,50898
photosynthetic pigment,50898
acetyl CoA,50898
polar body,50898
Saxon,50898
beta-hexosaminidase,50898
Acanthamoeba keratitis,50898
facial nerve paralysis,50898
pleural fluid,50898
monochlorobenzene,50898
pneumococcal vaccination,50898
lipoamide dehydrogenase,50898
Orobanche,50898
supraoptic,50898
deamination,50898
jackknifed,50898
adsorbate,50898
radiation-induced cancer,50898
Orthognathic surgery,50898
Circular Dichroism,50898
SOP,50898
5' UTR,50898
turquoise,50898
verbascoside,50898
exponential discounting,50898
FAA,50898
hypnotic susceptibility,50898
FAF,50898
Porcellionides pruinosus,50898
acridine orange,50898
Lycopersicon,50898
AIG,50898
ammine,50898
reticulocytosis,50898
pinchout,50898
K-T boundary,50898
phenoxybenzamine,50898
i.c.,50898
Brucella abortus,50898
Oreochromis,50898
flurbiprofen,50898
coccoid,50898
Tanner stage,50898
heterochromatin,50898
MDMX,50898
disulphide bonds,50898
Nordeste,50898
proper length,50898
bastnasite,50898
sperm cell,50898
medial meniscus,50898
equivalent electrical circuit,50898
calcined,50898
6-hydroxydopamine,50898
cefuroxime,50898
Capacho,50898
chromone,50898
high standards,50898
hydrogen-like,50898
asynergy,50898
Dunlin,50898
ARO,50898
object-oriented,50898
luminol,50898
Urochloa,50898
mobility impairment,50898
protandry,50898
palaeoenvironment,50898
Trigeminal neuralgia,50898
OsS4,50898
phosphoethanolamine,50898
Mittelschule,50898
Eemian,50898
microsatellite repeats,50898
niosomes,50898
Phoenix,50898
Nimodipine,50898
photosensitivity,50898
babirusa,50898
vindesine,50898
La Palma,50898
AMGEN,50898
UUE,50898
parasitosis,50898
jordanite,50898
Budel,50898
Deep Water,50898
Johns Hopkins,50898
tendinitis,50898
anal gland,50898
CRUNCH,50898
spatula,50898
corpus spongiosum,50898
dichotic listening test,50898
genomic library,50898
kHZ,50898
quasiparticle,50898
myristicin,50898
turbulence model,50898
pemphigus,50898
otter,50898
posterior pituitary,50898
mammaplasty,50898
autosomal chromosome,50898
Ipomoea,50898
S. pombe,50898
Metamorphism,50898
hematologic disorder,50898
lake Baikal,50898
photocell,50898
histocompatible,50898
dodecamer,50898
Fluconazole,50898
EDB,50898
ZPP,50898
melting point,50898
synaptic bouton,50898
SVE,50898
red pulp,50898
DVC,50898
temazepam,50898
isobutane,50898
fucoidan,50898
bulimics,50898
pine needle,50898
HPRT,50898
Gross Domestic Product (GDP),50898
proton NMR spectroscopy,50898
Morph,50898
Paratrichodorus,50898
mGUS,50898
RAPD,50898
bryostatin,50898
oolitic,50898
Seven women,50898
NER,50898
fimbriation,50898
head V,50898
chondroblasts,50898
USA 94,50898
theca,50898
terpinolene,50898
anaerobic glycolysis,50898
Balb/C,50898
Pierre,50898
stretch reflex,50898
orchidectomy,50898
endocrine glands,50898
TDD,50898
Trichoplusia ni,50898
RCA,50898
electrochromic devices,50898
Apocynaceae,50898
cytochrome b5 reductase,50898
4-methylpyridine,50898
MNM,50898
search algorithm,50898
pantelleritic,50898
Biological Psychiatry,50898
Viti Levu,50898
postrhinal cortex,50898
Q-cycle,50898
posterior tubercle,50898
siderophores,50898
diisopropyl ether,50898
haemorrhoids,50898
reduplication,50898
Malignant transformation,50898
H. lupulus,50898
Luvisol,50898
Intervertebral disc,50898
reaction velocity,50898
solid phase synthesis,50898
FSRs,50898
NMDA antagonists,50898
confounding factor,50898
crass,50898
Kuhn segment,50898
augmented breasts,50898
ITIL,50898
pinene,50898
bornite,50898
vacuum flask,50898
fram,50898
medium-chain acyl-CoA dehydrogenase deficiency,50898
P680,50898
nomothetic,50898
horseshoe kidney,50898
akinetic mutism,50898
oncotic pressure,50898
Latin square,50898
fluid restriction,50898
Delfzijl,50898
Alberta,50898
Haspelmath,50898
urodeles,50898
downdraft,50898
Epidermal Growth Factor Receptor,50898
UGP,50898
bcl-2,50898
Lutetian,50898
smectite,50898
terminal half-lives,50898
peduncle,50898
marina,50898
plastid,50898
Pentium,50898
Gender identity,50898
iodopsin,50898
oligomenorrhoea,50898
alveolar process,50898
absolute length,50898
triptorelin,50898
Troodos ophiolite,50898
Cassidulina,50898
RSS,50898
benzamides,50898
contour length,50898
leukocytopenia,50898
alternative oxidase,50898
titration curve,50898
Terai,50898
amnesia,50898
Phonological awareness,50898
human genome project,50898
free B,50898
exponential distribution,50898
bond dissociation energy,50898
HPMA,50898
PC3,50898
basidiomycetes,50898
gamma-carboxyglutamate,50898
Arum italicum,50898
equipartition,50898
Cell fractionation,50898
soy sauce,50898
paraglacial,50898
preproinsulin,50898
cyanidin,50898
biceps femoris muscle,50898
cyclopropane,50898
milligram,50898
terminal market,50898
butyric acids,50898
Durell,50898
luminophore,50898
Photocurrent,50898
Lanthanum,50898
polyandry,50898
superficial fascia,50898
E42,50898
"macrophages, alveolar",50898
nitrosobenzene,50898
jadeite,50898
Structural variation,50898
butatriene,50898
focal seizures,50898
chest radiograph,50898
tramadol,50898
cGMP-dependent protein kinase,50898
Sea Surface Temperature (SST),50898
olfactory tract,50898
auricular,50898
Calidris,50898
jim,50898
vibratome,50898
inferior mesenteric artery,50898
PALA,50898
genetic recombination,50898
anion-exchange,50898
vanadium oxide,50898
28S ribosomal RNA,50898
progestogen,50898
libration,50898
gallery,50898
cyclin D2,50898
HOXC4,50898
rotational correlation time,50898
galactosyltransferases,50898
leucosomes,50898
Nucleic,50898
adenophostin,50898
EEP,50898
Calphostin C,50898
phosphatidyl ethanolamine,50898
L8,50898
subunit II,50898
molecular geometry,50898
RPB2,50898
Campania,50898
sulpiride,50898
Pieniny Klippen Belt,50898
stem canker,50898
paraventricular nuclei,50898
Tafel equation,50898
pdc,50898
Alz,50898
significance test,50898
Fennoscandia,50898
alpha 2-antiplasmin,50898
28-day cycle,50898
Nilsson,50898
glycopeptide antibiotic,50898
methylmalonic aciduria,50898
azurophilic granule,50898
neophallus,50898
Leydig cell,50898
8S,50898
phagocytotic,50898
alachlor,50898
cholesterol esters,50898
vulcanization,50898
Pediatric intensive care unit,50898
Peptostreptococcus,50898
elta,50898
Fallopian tubes,50898
cryptorchism,50898
antihistamines,50898
Subtropical Indian Ocean Dipole,50898
tobacco mosaic virus,50898
Hybridization probe,50898
methyl acetate,50898
hprt,50898
potassium cyanide,50898
PRD,50898
vocal muscle,50898
Calvinist,50898
archistriatum,50898
partial specific volume,50898
glycerophospholipids,50898
adenine nucleotide translocator,50898
pointwise convergence,50898
lingual gyrus,50898
BRM,50898
continuously erupting,50898
nude mouse,50898
kaolin,50898
ketene,50898
network interface,50898
"2,4,5-T",50898
SILK,50898
cisapride,50898
transition radiation detector,50898
humulone,50898
cholestyramine,50898
Phobia,50898
mCi,50898
receptor modulator,50898
replication factor C,50898
increased hair growth,50898
leprechaun,50898
HDR,50898
beam splitter,50898
Giardia lamblia,50898
la Recherche,50898
haemaccel,50898
enzymatic levels,50898
pangenes,50898
ECW,50898
Giza,50898
regulatory site,50898
distal tubule,50898
ASTM,50898
rich media,50898
UV-C,50898
Scoresby,50898
mitotic phase,50898
indirect proof,50898
captopril,50898
glycinate,50898
phytanoyl-CoA,50898
X10,50898
invitro,50898
peroxisome biogenesis disorder,50898
RNase H,50898
pyrimidone,50898
lugworm,50898
Poisson-Boltzmann equation,50898
ice nucleators,50898
methacrylonitrile,50898
TSR,50898
Cycloheximide,50898
Collagenase,50898
Bremazocine,50898
Ejection fraction,50898
Genetic heterogeneity,50898
iothalamate,50898
fmlp,50898
Cln3,50898
response surface methodology,50898
Subgenomic,50898
voice prosthesis,50898
laver,50898
dTTP,50898
mesomelic,50898
MAO-B,50898
Spodoptera frugiperda,50898
transcription-coupled repair,50898
primary alcohol,50898
short chain fatty acids,50898
impact glass,50898
Vitra Design Museum,50898
nitrazepam,50898
GEL,50898
hemorrhoidectomy,50898
myelotoxic,50898
cerulenin,50898
LPAM,50898
ansa cervicalis,50898
cartwheel,50898
Cyprus,50898
genuine risk,50898
Conductance,50898
Nuclease,50898
glucuronosyltransferase,50898
Tyrosine hydroxylase,50898
p-wave,50898
UV-light,50898
biotinidase,50898
acute abdomen,50898
hydroxocobalamin,50898
intrinsic activities,50898
Suramin,50898
batholith,50898
cystoscopy,50898
ultra-high vacuum,50898
AABW,50898
GPIX,50898
active margin,50898
Cherenkov detector,50898
CYP2A6,50898
mononuclear phagocytic system,50898
foramen ovale,50898
E70,50898
Leukopenia,50898
centroblastic,50898
DNA supercoiling,50898
Archelaus,50898
flavopiridol,50898
NECA,50898
mastoid,50898
polyacid,50898
cooler conditions,50898
medial forebrain bundle,50898
cholecystolithiasis,50898
non-linear dynamics,50898
IDR,50898
antiepileptics,50898
yj,50898
realgar,50898
Xanthohumol,50898
Deprenyl,50898
chlorite,50898
phenyllithium,50898
Small steps,50898
Phenanthridine,50898
EF-1,50898
etonogestrel,50898
absolute magnitude,50898
quartzite,50898
cyanocobalamin,50898
bremazocine,50898
methylamide,50898
Colloid,50898
Rhenium-186,50898
Asuncion,50898
diacetyl,50898
bz,50898
protein fingerprinting,50898
Captopril,50898
chronostratigraphical,50898
ANC,50898
Azetidine,50898
alpha-chlorohydrin,50898
Ico,50898
Epirubicin,50898
multitaper,50898
Poisson-Boltzmann,50898
Eclampsia,50898
The room,50898
time-variant,50898
dermatoglyphics,50898
vacuolating,50898
bolometer,50898
vitelliform macular dystrophy,50898
bactericidal permeability-increasing protein,50898
sideband,50898
Fundus photography,50898
chimerism,50898
ACE2,50898
apple juice,50898
DNaseI,50898
heptyl,50898
glucosidase,50898
ELAM,50898
cell group,50898
triose,50898
keyhole limpet hemocyanin,50898
Gargano,50898
antispasmodic,50898
blender,50898
gallstone pancreatitis,50898
corolla,50898
haemolysin,50898
mol/min,50898
PHA-L,50898
vitelline arteries,50898
LMD,50898
DSF,50898
drug sensitization,50898
adjustment disorder,50898
Agaricus arvensis,50898
chalcone,50898
homing endonuclease,50898
lineage markers,50898
ooid,50898
varicella zoster virus,50898
high energy phosphate,50898
Stille coupling,50898
Kelso,50898
patent blue V,50898
Kodak,50898
Mass production,50898
PAN,50898
blood groups,50898
pre-term infants,50898
breithauptite,50898
Guider,50898
Szeged,50898
von Willebrand disease,50898
external ear,50898
kainate,50898
UDP,50898
aztreonam,50898
EF-Tu,50898
nuclear run-on,50898
interpolation formula,50898
colloidal gold,50898
hypovolaemic shock,50898
Mesorhizobium,50898
grammaticalised,50898
serial correlation,50898
galactocerebroside,50898
midbrain tegmentum,50898
thioaldehyde,50898
hydrophobic interaction,50898
piperidinyl,50898
Hamaker constant,50898
osteoprogenitor,50898
Specific activity,50898
rad1,50898
Paxton,50898
tonB,50898
I1,50898
periplasmic proteins,50898
Depolarizing,50898
La Luna,50898
venous insufficiency,50898
Grapefruit juice,50898
PTPRM,50898
preoptic area,50898
CA 15,50898
nerolidol,50898
Dniepr,50898
specific dynamic action,50898
homotetramer,50898
xanthan gum,50898
dermatoses,50898
spiropentane,50898
KB,50898
immiscibility,50898
dacite,50898
MAP kinase,50898
4K,50898
Sardinian,50898
parr,50898
Sao Miguel,50898
honeybee,50898
RC-5,50898
AFP,50898
visceral pleura,50898
areal density,50898
erythromycin,50898
caryophyllene,50898
commissure,50898
onlap,50898
Bradford,50898
B7.1,50898
individual accuracy,50898
very-long-chain acyl-CoA dehydrogenase deficiency,50898
Q-type,50898
qCO,50898
celite,50898
COO,50898
gastrin,50898
miscible,50898
cytotoxin,50898
octopamine,50898
Ribonucleotide reductase,50898
AMSTEL,50898
maltol,50898
muscle tonus,50898
Boltzmann distribution,50898
lineage III,50898
haemangiopericytoma,50898
blood lead level,50898
UMP,50898
G1/S transition,50898
self-consistent field (SCF),50898
C. volutator,50898
calcitriol,50898
biological marker,50898
digitizer,50898
quiet Sun,50898
PMEA,50898
mucosa-associated lymphoid tissue lymphoma,50898
cell culture assays,50898
mitotic recombination,50898
biliary fistula,50898
The sacrifice,50898
glomerular layer,50898
stereotypies,50898
catabolite repression,50898
isopentenyl pyrophosphate isomerase,50898
epithelioid cell,50898
metabolic control theory,50898
lacquer,50898
Alstroemeria,50898
Paraguay,50898
Michaelis constant,50898
varicocele,50898
OMPs,50898
hupA,50898
hIL,50898
DXM,50898
parietal cell,50898
AIBA,50898
sodium bromide,50898
Delta Psi,50898
grammaticalisation,50898
flavodoxin,50898
Siderophore,50898
HgBr2,50898
glutamate metabolism,50898
outstandingly,50898
parautochtonous,50898
indole-3-acetic acid,50898
erythrodermic,50898
photopolymerization,50898
B7.2,50898
dithiane,50898
neuronal circuit,50898
competitive antagonist,50898
triangulane,50898
regiochemistry,50898
standard curve,50898
propargyl,50898
acylation,50898
superinfection,50898
ventral pallidum,50898
atypia,50898
NLD,50898
Alkaloid,50898
ocular melanoma,50898
thermography,50898
Angles,50898
Hemolymph,50898
proinsulin,50898
fundal height,50898
ribosome binding site,50898
intramuscular injection,50898
melittin,50898
PGR,50898
Flecainide,50898
bromination,50898
benzo[ghi]perylene,50898
pcr,50898
Dyslexia,50898
C peptide,50898
diazo,50898
prenyl,50898
neuroprosthetics,50898
Pluton,50898
Self-organization,50898
loglogistic,50898
2-hydroxyphytanoyl-CoA lyase,50898
antisense RNA,50898
Androstane,50898
murine leukemia virus,50898
simulated body fluid,50898
valines,50898
Pechora,50898
injection port,50898
Freundlich equation,50898
concentration polarization,50898
respiratory monitoring,50898
minnesota,50898
NADPH-diaphorase,50898
nucleoskeleton,50898
"1,8-cineole",50898
cellulase,50898
Roosendaal,50898
sea-floor spreading,50898
SIOD,50898
ARF1,50898
Austroalpine,50898
Ladinian,50898
inversion barrier,50898
nap,50898
Haemodialysis,50898
sex-linked,50898
Neurotransmitter,50898
leu-enkephalin,50898
bioavailabilities,50898
mixed lymphocyte reaction,50898
Brewster,50898
Propionibacterium,50898
ductal cells,50898
coccoids,50898
gamma camera,50898
haemocyte,50898
ear canal,50898
electron-microscopy,50898
Cremophor EL,50898
DNAse,50898
dopaminergic neuron,50898
NHANES,50898
Titration,50898
apotransferrin,50898
embolus,50898
collagen Type I,50898
Phloretin,50898
Biotin,50898
child psychiatry,50898
sgp,50898
conservation law,50898
oleoresin,50898
wavenumber,50898
Bjerkandera,50898
Locus heterogeneity,50898
Maalox,50898
enkephalin,50898
cool water,50898
Mean squared error,50898
formononetin,50898
buffalo,50898
glottis,50898
Sediment trap,50898
Leucovorin,50898
leucopenia,50898
thiazole,50898
hexavalent,50898
feed conversion ratio,50898
apparicine,50898
GB-1,50898
biacetyl,50898
CFU-GM,50898
East Greenland Current,50898
PTPRN2,50898
vulcanized rubber,50898
European Union directive,50898
MIT,50898
Myelosuppression,50898
Larmor frequency,50898
prekallikrein,50898
hyperfine coupling,50898
atmospheric pressure ionization,50898
estrogen replacement therapy,50898
argon laser,50898
tetrahedrite,50898
nerol,50898
Type IIB,50898
o-phenylenediamine,50898
SL2,50898
Rhizobium meliloti,50898
Cl2,50898
GCLC,50898
Katchalsky,50898
nucleoli,50898
nif gene,50898
Globorotalia menardii,50898
Amsterdam criteria,50898
Lambertian surface,50898
4-hydroxyquinoline,50898
rudists,50898
prophages,50898
zircon fission track,50898
Bol,50898
rotational inertia,50898
open arms,50898
triclopyr,50898
ooids,50898
Fundoscopy,50898
Gauss,50898
UL,50898
furanose,50898
palagonite,50898
U-235,50898
Adhesions,50898
dendrimers,50898
N4,50898
Throughfall,50898
LHRH,50898
psychoneurotic,50898
phenylbutazone,50898
Antihistamines,50898
spinor,50898
pectinase,50898
Clobenpropit,50898
tryptamine,50898
bulbocavernosus,50898
EF-TU,50898
hetero-oligomer,50898
wafer,50898
trachyte,50898
SKF-82958,50898
UDP-GlcNAc,50898
diapir,50898
TGF alpha,50898
tolrestat,50898
piriform cortex,50898
molecular conformation,50898
Esophagitis,50898
sulindac,50898
HOXC5,50898
SP-C,50898
mastalgia,50898
Five-year survival rates,50898
sulfide mineral,50898
pitchblende,50898
financial leverage,50898
pulmonary capillary wedge pressure,50898
Jorge,50898
hydrogen-deuterium exchange,50898
nasal spray,50898
OHA,50898
spherical harmonics,50898
EMBL,50898
Maraca,50898
Norrie disease,50898
DDP,50898
EF-Ts,50898
breakthrough bleeding,50898
humic,50898
chemist,50898
nitramine,50898
statistical thermodynamics,50898
incomplete dominance,50898
curve fitting,50898
Aquitanian,50898
C-145,50898
Baikal Rift Zone,50898
HBF,50898
s1c,50898
femtogram,50898
NTS,50898
PTPRT,50898
lumbar arteries,50898
micronucleus,50898
protamine sulfate,50898
cuspidine,50898
Photosystem,50898
dental implantation,50898
neuropeptidergic,50898
trigonal planar,50898
Pacific Decadal Oscillation,50898
Sinorhizobium meliloti,50898
CK7,50898
sumatriptan,50898
sulfinyl chloride,50898
Bret,50898
main bronchus,50898
Klein-Gordon equation,50898
actinic reticuloid,50898
Derjaguin approximation,50898
leukapheresis,50898
life studies,50898
Photofrin,50898
hemangioendothelioma,50898
CDK4,50898
follicular dendritic cell,50898
Aster tripolium,50898
C1-Inhibitor,50898
R. sphaeroides,50898
functional endoscopic sinus surgery,50898
superoperator,50898
flavone,50898
deoxyuridine monophosphate,50898
Horizontal transmission,50898
inverted microscope,50898
HoChiMinh City,50898
endomycorrhizal,50898
thermospray,50898
vive,50898
sustained-release,50898
Guyana shield,50898
mustelids,50898
granula,50898
gyrase,50898
topological space,50898
CYP2E1,50898
perichondrium,50898
phenylhydrazine,50898
Deconstruction,50898
Sears,50898
MAG3,50898
Cyprinus carpio,50898
xylose,50898
Phellinus,50898
morpholines,50898
initiation codon,50898
trigeminal neuralgia,50898
flu,50898
supramolecular assemblies,50898
Ebro,50898
metabasalt,50898
norovirus,50898
IBO,50898
Southern hybridization,50898
Nitrogen balance,50898
spiral arteries,50898
benomyl,50898
HAMC,50898
tunica albuginea,50898
cytosine deaminase,50898
cyanide radical,50898
Chlorination,50898
stiripentol,50898
cilastatin,50898
prenylflavonoid,50898
developing tooth,50898
chymotrypsin,50898
diepoxybutane,50898
major groove,50898
FXT,50898
DNA probe,50898
Mitoxantrone,50898
ig,50898
Topoisomerase,50898
Sveconorwegian Orogeny,50898
Virology,50898
torsional angle,50898
uranate,50898
Canada Basin,50898
lamellar bodies,50898
M-3,50898
paragangliomas,50898
hyperhidrosis,50898
Jupiter,50898
Santonian,50898
northern Alberta,50898
pagetoid reticulosis,50898
germinal vesicle,50898
Intravenous injection,50898
Princess Margaret,50898
median eminence,50898
TS inhibitors,50898
metarhodopsin II,50898
blastoderm,50898
instantaneous phase,50898
False positive,50898
parageneses,50898
long-axis,50898
activation potential,50898
orthopaedic footwear,50898
Micrococcus,50898
EBER,50898
carnitine-acylcarnitine translocase,50898
pathologic fracture,50898
erythroderma,50898
glycophorin,50898
aldose reductase,50898
erosional surface,50898
44 minutes,50898
lymphoreticular,50898
AcLDL,50898
pistils,50898
digital image processing,50898
lipid oxidation,50898
Proasellus,50898
R-5,50898
sodium perchlorate,50898
mannanase,50898
purpuric,50898
MIMO,50898
gonadorelin,50898
"9,10-anthraquinone",50898
cyclic GMP,50898
GAPDH,50898
mepacrine,50898
Lambertian,50898
HOXC6,50898
Lignin,50898
99 women,50898
Filipino woman,50898
anti conformation,50898
radiation scattering,50898
benzazepine,50898
spontaneous mutations,50898
Interferon beta-1a,50898
phosphotransferase,50898
calcium-induced calcium release,50898
diamictite,50898
SATA,50898
trisaccharide,50898
insulinoma,50898
beta-endorphin,50898
Brule,50898
ampoule,50898
RNase protection assay,50898
2-butanone,50898
DRD5,50898
TEMPO,50898
THX,50898
irreversibilities,50898
ouabain,50898
imidazolone,50898
mucosa-associated lymphoid tissue,50898
lymphocyte function-associated antigen-1,50898
chemical castration,50898
terpenes,50898
ovulated,50898
comenditic,50898
glucose clamp technique,50898
genistin,50898
neostriatum,50898
PDO,50898
tungstate,50898
tumour marker,50898
CK20,50898
Ethyl acetate,50898
Valsalva manoeuvre,50898
flint,50898
paratracheal lymph nodes,50898
Behav Genet,50898
PSL.,50898
Clapeyron slope,50898
relative permittivity,50898
40K,50898
Puccinellia maritima,50898
Pyr,50898
myr,50898
glucose oxidase,50898
5-HT2a receptor,50898
Sandona,50898
percutaneous transluminal angioplasty,50898
uraninite,50898
Triglyceride,50898
MNDO,50898
ketanserin,50898
RNA-dependent RNA-polymerase,50898
Current source,50898
anti-serum,50898
Poephila,50898
RPC,50898
Papanicolaou smear,50898
Gosau,50898
antimigraine,50898
halogen lamp,50898
HgI2,50898
Corunna Downs,50898
CCA-adding enzyme,50898
NADPH dehydrogenase,50898
pathogenesis-related,50898
Beta-cell,50898
sensory nerve,50898
Neonatal intensive care unit,50898
gas kinetics,50898
Y10,50898
anthocyanins,50898
interpeduncular nucleus,50898
FibA,50898
cell-free system,50898
silicate minerals,50898
Thrombolysis In Myocardial infarction,50898
propan-2-ol,50898
aromatic amine,50898
microscope objective,50898
J 13,50898
hibernation,50898
koln,50898
Vinblastine,50898
Hill coefficient,50898
carnitine palmitoyltransferase II deficiency,50898
Photosystem 1,50898
CYP2C8,50898
islet,50898
A16,50898
HMX,50898
URA3,50898
substantia innominata,50898
PHYH,50898
full duplex,50898
galactoside,50898
fermented milk,50898
zero-field splitting parameter,50898
tholeiitic,50898
colonic crypts,50898
hypersphere,50898
cystine,50898
SP-D,50898
neurokinin A,50898
imipenem,50898
INAH,50898
classical genetics,50898
aerobic metabolism,50898
nasal obstruction,50898
heptamethyl,50898
Liouville space,50898
SCID mouse,50898
obturatorius,50898
septicemia,50898
antidiarrheal,50898
Refsum disease,50898
Mitosis,50898
Asellus,50898
Haken,50898
eclipsed conformation,50898
trefoil knot,50898
aroA,50898
deep red,50898
HSD17B3,50898
ependyma,50898
cytopathologist,50898
conformational epitope,50898
Spartina anglica,50898
tandem mass spectrum,50898
diazaborine,50898
shoulder mechanism,50898
raphe nucleus,50898
Autocrine,50898
5'-terminal,50898
Galactorrhea,50898
Tilapia,50898
rainbow trout,50898
DSG,50898
thermal metamorphism,50898
surface photovoltage,50898
synform,50898
autoreceptor,50898
convergent sequence,50898
chalcones,50898
pancake,50898
digoxigenin,50898
Gaussian white noise,50898
vital dye,50898
Macromolecular crowding,50898
Transsexualism,50898
aerobic denitrification,50898
stratum granulosum,50898
Dutch Lake,50898
metyrapone,50898
fatigue failure,50898
physiologically based pharmacokinetic,50898
Protein C deficiency,50898
vermilion,50898
primary structure,50898
Cancer cell,50898
macular pucker,50898
parasuicide,50898
dbz,50898
central canal,50898
oenite,50898
RFC1,50898
septal nuclei,50898
carcinosarcoma,50898
L-Citrulline,50898
telomeric regions,50898
G0,50898
"time, time",50898
trimegestone,50898
dynorphin,50898
Asparaginase,50898
leupeptin,50898
neuron specific enolase,50898
Kambera,50898
Smooth pursuit,50898
central retinal artery,50898
carzelesin,50898
apomorphine,50898
RDX,50898
siloxane,50898
VLK,50898
transvestism,50898
shocked quartz,50898
NG8,50898
impact winter,50898
ritodrine,50898
carnitine palmitoyltransferase II,50898
xpc,50898
relative interior,50898
Maracaibo,50898
TcR,50898
ufa,50898
stomatal density,50898
sodium cromoglycate,50898
bone marrow aspirate,50898
bending moment,50898
Pliego,50898
PM3,50898
decane,50898
cogen,50898
Blood gas,50898
immunoconjugate,50898
body water,50898
agarose gel,50898
anal abscess,50898
tert-butyldimethylsilyl,50898
transcription coupled repair,50898
DCPIP,50898
LEPS,50898
neonatal hypoglycemia,50898
Mycoplasma genitalium,50898
ultrasonic bath,50898
amphibian,50898
pillarisation,50898
famotidine,50898
intermediolateral cell column,50898
Kde,50898
Bradyrhizobium japonicum,50898
serial passage,50898
ACE inhibitors,50898
UHF,50898
55 Cancri,50898
molar absorptivity,50898
cloverleaf,50898
Foundation seamounts,50898
ventromedial nucleus,50898
ethogram,50898
Reverse Northern blot,50898
A 44,50898
Habitats Directive,50898
cholesteric,50898
analcime,50898
Tc-99,50898
pollen tube,50898
large prime,50898
coffinite,50898
Ijsselmeer,50898
The cure,50898
retinal artery,50898
Bietigheim-Bissingen,50898
pseudo-random,50898
guanosine-5'-monophosphate,50898
MIDC,50898
vaginal smears,50898
Typhlonectes,50898
channel types,50898
ash flow,50898
mdr1,50898
skin neoplasms,50898
basal cell layer,50898
natrolite,50898
frequency modulation,50898
PBPK,50898
Nifedipine,50898
5'-AMP,50898
GrB7,50898
corallite,50898
antipain,50898
Buru,50898
Tilata,50898
integral membrane protein,50898
Cenomanian,50898
naringenin,50898
dysmenorrhea,50898
cholesterol sulfate,50898
amygdaloid nucleus,50898
dob,50898
Odijk,50898
str1,50898
Barinas,50898
vulcanizates,50898
Arctic ice pack,50898
aggrade,50898
hypopnea,50898
flavanone,50898
Transepidermal water loss,50898
foot-wall,50898
pulsus bisferiens,50898
Incision,50898
propeller-type,50898
IgA deficiency,50898
CYP2C18,50898
Protonated,50898
GTP cyclohydrolase II,50898
intercostal nerve,50898
Blees,50898
haemoptysis,50898
expression cloning,50898
depressant,50898
Casodex,50898
all-trans retinoic acid,50898
4-nitroquinoline-1-oxide,50898
plaster cast,50898
plane-polarized light,50898
phytohemagglutinin,50898
Markermeer,50898
stria terminalis,50898
ak,50898
furaneol,50898
atmospheric drag,50898
piperazine,50898
integral equation,50898
Nucleotide sequence,50898
snitch,50898
Bromoviridae,50898
atypical ductal hyperplasia,50898
annulene,50898
protein 4.2,50898
Acetylcarnitine,50898
IgD,50898
sieve mesh size,50898
DEAE-Sepharose,50898
radiometric dating,50898
Klenow fragment,50898
Madison,50898
compound eye,50898
Intensive Care Unit,50898
Protein S deficiency,50898
outer zone,50898
dUMP,50898
Limonene,50898
isotype switching,50898
segmental resection,50898
schizont,50898
molecular biologist,50898
JVM,50898
peloids,50898
Selkirk,50898
MTV,50898
Z-code,50898
decapitation,50898
percent difference,50898
Bromocriptine,50898
fungicidal,50898
U-251,50898
Wilcoxon signed rank test,50898
nahcolite,50898
Ordovician,50898
O antigen,50898
dTMP,50898
axillary nodes,50898
miscibility,50898
Esophagogastroduodenoscopy,50898
Bisoprolol,50898
marble,50898
GalT,50898
mass wasting,50898
10 years younger,50898
V2O5,50898
positional cloning,50898
gnotobiotic,50898
cytochrome P-450,50898
sauce,50898
Thermolysin,50898
c-abl,50898
Minoxidil,50898
alternative complement pathway,50898
T cell lymphoma,50898
monoamine oxidase,50898
kappa-opioid receptor,50898
atp,50898
methyl methanesulfonate,50898
Netherlands Cancer Institute,50898
T7 RNA polymerase,50898
lab frame,50898
listric fault,50898
FSA,50898
Percoll,50898
hale,50898
genetic pathway,50898
Rutile,50898
AZQ,50898
Indianapolis,50898
RNA helicase,50898
IGHD,50898
esterified,50898
isovaleryl-CoA,50898
Type II diabetes,50898
radical reaction,50898
nucleus septalis,50898
cis-form,50898
DNA recombination,50898
principal plane,50898
viscometry,50898
Indian hedgehog,50898
immunoscintigraphy,50898
Tukang Besi,50898
zymogen,50898
Leyte,50898
benthivorous,50898
Bi-2,50898
exine,50898
Fucus,50898
nitrosation,50898
septal region,50898
coproporphyrin,50898
Stat1,50898
continental fragment,50898
A-23,50898
Periodate,50898
Fennoscandian Shield,50898
Clarithromycin,50898
T-helper cell,50898
histidine decarboxylase,50898
inhibin,50898
PFL,50898
O-4,50898
submucosal glands,50898
acrolein,50898
cryosurgery,50898
Albion,50898
hardground,50898
protection mechanism,50898
antihistaminic,50898
partial agonism,50898
purinoceptors,50898
b-type,50898
crystal fractionation,50898
magnetic permeability,50898
disodium phosphate,50898
NBT,50898
Zircon,50898
Reed-Sternberg cells,50898
corundum,50898
Donets,50898
Phase velocity,50898
lipoamide,50898
supersecondary structure,50898
Dolerite,50898
accumbal,50898
Marel,50898
communication protocol,50898
vortioxetine,50898
transsulfuration,50898
immunoreaction,50898
laboratory B,50898
wedge pressure,50898
screening cultures,50898
rhamnose,50898
Ptolemais,50898
UDP-galactose,50898
monocistronic,50898
pleochroism,50898
H-beta,50898
Hyperbilirubinemia,50898
external carotid,50898
Baculovirus,50898
CYP3A5,50898
C3 convertase,50898
biotin-labelled,50898
spindle cell,50898
stannane,50898
Sedimentary structures,50898
rearrangement reaction,50898
aminocarb,50898
piecewise linear,50898
High-dose estrogen,50898
sphene,50898
nick translation,50898
ungradable,50898
Amer,50898
Alfamovirus,50898
magnesium sulfate,50898
molasse,50898
B-DNA,50898
chiral HPLC,50898
Lupus anticoagulant,50898
USDA,50898
CuBr2,50898
necrotizing fasciitis,50898
H2O3,50898
Film speed,50898
left atrial appendage,50898
solar keratosis,50898
inositol phosphates,50898
Shiga toxin,50898
attributable risk,50898
ribonuclease S,50898
3D systems,50898
5-HT2a,50898
enterohepatic circulation,50898
oxoglutarate dehydrogenase complex,50898
perimenopause,50898
amoeboid,50898
Austin,50898
solitary plasmacytoma,50898
ovum,50898
Insulin therapy,50898
sex steroid receptor,50898
Rubiaceae,50898
Detoxification,50898
Filgrastim,50898
Microvilli,50898
insulitis,50898
grapefruit juice,50898
Hypotonic,50898
tooth development,50898
erupted teeth,50898
T1 relaxation time,50898
Rieske protein,50898
Tryptamine,50898
stomach cancer,50898
Granulocyte-macrophage colony stimulating factor,50898
rocky planet,50898
albite,50898
M109,50898
Hearst,50898
aluminium hydroxide,50898
glucuronyl transferase,50898
Kenya Rift,50898
pulse oximeter,50898
pliers,50898
Unna,50898
prenylated,50898
Austronesian languages,50898
Polluter Pays Principle,50898
isobutene,50898
electron multiplier,50898
optimal foraging theory,50898
irreplaceable,50898
corneal transplant,50898
thrombogenesis,50898
anuran,50898
government technology,50898
incompressible fluid,50898
fat cell,50898
allyl chloride,50898
indecision,50898
Andriol,50898
Podarcis hispanica,50898
Nepeta,50898
boar,50898
augen gneiss,50898
antihypertensive drug,50898
visible wavelength,50898
vermilion border,50898
deontic logic,50898
colloidal crystal,50898
urethral orifice,50898
paraparesis,50898
narcotics,50898
cumulativity,50898
air quality standards,50898
sustainable living,50898
UVrABC endonuclease,50898
post-traumatic amnesia,50898
Arum,50898
HBTU,50898
Gait disturbance,50898
CMG,50898
homogeneous electron gas,50898
mistreated,50898
Rauwolfia,50898
2-butoxyethanol,50898
Heterohelix,50898
Kinetoplastida,50898
anterior tongue,50898
Loosdrecht,50898
brown coal,50898
membrane transporter,50898
land system,50898
mating type,50898
South Sulawesi,50898
nonparametric statistics,50898
genotoxins,50898
RSIs,50898
L-8,50898
Arctic Circle,50898
electrotherapy,50898
Vatnajokull,50898
topoisomerases,50898
Deep Freeze,50898
Harvey Leibenstein,50898
cefadroxil,50898
hydrogenate,50898
body-centred cubic,50898
phylogeography,50898
nitrogen dioxide,50898
subsequent leaking,50898
KPMG,50898
tetramethylthiuram disulfide,50898
Maud Rise,50898
Lycopersicon esculentum,50898
saprotrophic,50898
Free flap,50898
Transformer,50898
nigrostriatal pathway,50898
quantity adjustment,50898
Cryptosporidium parvum,50898
food additive,50898
developmental psychology,50898
dicentric chromosome,50898
Tabernaemontana pachysiphon,50898
Aphanizomenon,50898
antipyrine,50898
general circulation model,50898
Stratiotes,50898
hierarchical linear model,50898
mustelid,50898
lorglumide,50898
connect-four,50898
mathematics education,50898
videoconferencing,50898
kayaking,50898
hexabromobenzene,50898
person perception,50898
pulmonary trunk,50898
ROHF,50898
L-proline,50898
homeostatically controlled,50898
ulnar artery,50898
X-rite,50898
magician,50898
mouse hepatitis virus,50898
dihydroergotamine,50898
density matrices,50898
cross-coupling reaction,50898
Currawong,50898
Sao Miguel island,50898
corporate bond,50898
schist,50898
restaurant chain,50898
P22,50898
Luquillo,50898
H antigen,50898
ladle,50898
microextraction,50898
papain,50898
tau-function,50898
squalene synthase,50898
temperature scale,50898
Juggling,50898
Relative validity,50898
ester reduction,50898
echolocation,50898
Bremsstrahlung,50898
n-butyllithium,50898
fumarylacetoacetate hydrolase,50898
SLD,50898
palmar hyperhidrosis,50898
vb,50898
molecular cytogenetics,50898
poxvirus,50898
WCQ,50898
Trel.,50898
object model,50898
cognitive reserve,50898
pseudohermaphroditism,50898
filtering problem,50898
superior vena cava,50898
Fick principle,50898
mesangial proliferative glomerulonephritis,50898
distributed object,50898
empirical measure,50898
social security administration,50898
Pythium,50898
Bernardo,50898
garden snail,50898
soil sanitation,50898
temporal logic,50898
allylic alcohols,50898
environmental issue,50898
buffer overflow,50898
teniposide,50898
azetidine-2-carboxylic acid,50898
proportional odds model,50898
chicken anemia virus,50898
muscle architecture,50898
D-ribose,50898
Aldan,50898
ring-opening reaction,50898
fetal origins hypothesis,50898
essential drugs,50898
polar continental,50898
message passing,50898
Dartmouth,50898
software agent,50898
Vagal tone,50898
vasospasm,50898
user participation,50898
Cape Verde,50898
banded matrices,50898
unital,50898
Polyol,50898
outer Carpathians,50898
methylphosphine,50898
thrust tectonics,50898
intermediate lobe,50898
R-matrix,50898
fatty aldehyde dehydrogenase,50898
Mauldin,50898
Poir.,50898
inequality relations,50898
Benth.,50898
tert,50898
catalytic antibodies,50898
Kolva,50898
human growth hormone,50898
pairwise disjoint,50898
Aiton,50898
N-bromosuccinimide,50898
direct sum,50898
Mw,50898
turgor,50898
malaria vaccine,50898
beriberi,50898
Bamble,50898
"Lauder, New Zealand",50898
pubertal growth spurt,50898
Fenna-Matthews-Olson complex,50898
Florence,50898
Fermi energy,50898
beetle,50898
Alternaria alternata,50898
immunosuppressive drug,50898
peptide nucleic acid,50898
biocontrol,50898
underbar,50898
Brillouin scattering,50898
VJ,50898
Lower Pliocene,50898
default logic,50898
hemocyanin,50898
Seub.,50898
DCP,50898
18-crown-6,50898
chemiluminescent,50898
TZD,50898
Hankel Transform,50898
body-centered-cubic,50898
pilosebaceous unit,50898
spontaneous fission,50898
Maternal Near Miss,50898
Tetrahymena,50898
connected graph,50898
antiprotease,50898
Moro,50898
nonexpansive,50898
telecommunication,50898
CASI,50898
supracrustal,50898
Rotliegend,50898
Germain Katanga,50898
pyranose,50898
toxicophore,50898
organolead,50898
thermal decomposition,50898
lutra,50898
haemagglutination,50898
merocyanine,50898
Opus,50898
Henderson,50898
vestment,50898
Wiener-Hopf,50898
visual angle,50898
sycamore,50898
proB,50898
Bergman spaces,50898
antacid,50898
high dynamic range,50898
refuse collector,50898
model X,50898
Penectomy,50898
Radon measure,50898
PZ,50898
Mackenzie Delta,50898
prokinetics,50898
The message,50898
closed shell,50898
MFISH,50898
Fleer,50898
Alone,50898
cleaner production,50898
Menengai,50898
Nitrobacter,50898
operating system,50898
rational expectations,50898
scintillator,50898
saturable absorber,50898
parallel computing,50898
Q-switched,50898
comparative literature,50898
connectionist,50898
AsCl3,50898
Ali,50898
amniotes,50898
automotive industry,50898
Zachary,50898
coronal loop,50898
radio telemetry,50898
AMsterdam,50898
ideomotor,50898
L-serine,50898
earth science,42711
green sulfur bacteria,50898
P90,50898
Recombinant DNA,50898
optimal tax,50898
frame problem,50898
dynamical relaxation,50898
NIKHEF,50898
feature binding,50898
BaCe1,50898
toxic heavy metal,50898
nuclear size,50898
thermionic,50898
central precocious puberty,50898
ttl,50898
photosynthetic reaction centre,50898
aluminium phosphate,50898
antithrombin III deficiency,50898
pyrogen,50898
Molasse Basin,50898
2-butyne,50898
methylmalonyl-CoA mutase deficiency,50898
ZEB2,50898
ver,50898
Physica D,50898
ligand occupation,50898
histamine agonists,50898
Bowen,50898
Pacific plate,50898
cauliflower mosaic virus,50898
trans-Golgi network,50898
amd,50898
glycoprotein Ib,50898
phosphatidyl serine,50898
monzonite,50898
SISO,50898
TIA-1,50898
FLNA,50898
reserpine,50898
electrocoagulation,50898
RhAG,50898
homogeneous catalysis,50898
KO2,50898
reticular cells,50898
aLk,50898
Stx2,50898
Polyneuropathy,50898
seizure threshold,50898
GnRH analogue,50898
ICI,50898
structural analog,50898
P-60,50898
CHARMm,50898
electrophilic aromatic substitution,50898
breast tenderness,50898
branch point,50898
compile time,50898
Tidal volume,50898
oligoclase,50898
flange,50898
Ilarvirus,50898
Yemen,50898
FPLC,50898
exsolution,50898
TSL,50898
evolutionary landscape,50898
Sancar,50898
Fourier-transform infrared,50898
distance geometry,50898
mastoid bone,50898
Laminaria,50898
biofacies,50898
Genotoxicity,50898
mycorrhiza,50898
Lachlan Fold Belt,50898
pargyline,50898
CuPc,50898
IJ,50898
Best disease,50898
ProB,50898
protoplasm,50898
Flt-1,50898
idazoxan,50898
cratonization,50898
Working Formulation,50898
ligase chain reaction,50898
antiasthmatic,50898
kidney tubules,50898
SEPs,50898
pH indicator,50898
anesthesiologist,50898
tubal ligation,50898
Galena,50898
pH 9,50898
Ulcerative colitis,50898
ganglion cells,50898
anaphylactic reactions,50898
circumventricular organs,50898
Cabri,50898
DNA sequencer,50898
gluten sensitivity,50898
perfect square,50898
Nivard,50898
isotopic signature,50898
Mucositis,50898
nerve growth factors,50898
VP16,50898
mucoadhesion,50898
pyrrolidine,50898
TOTO,50898
SYBR Green I,50898
levocetirizine,50898
Chemisorption,50898
Type 4,50898
axoplasm,50898
septal nucleus,50898
anorectal surgery,50898
smooth-muscle,50898
Home recording,50898
gastric juice,50898
parietal pleura,50898
spectropolarimetry,50898
N.S.,50898
Acanthamoeba,50898
Maat,50898
volcanic cone,50898
MGG,50898
sulfonyl,50898
Glycosylated,50898
virial coefficient,50898
Blake,50898
rate equation,50898
pretectum,50898
Wheat germ,50898
N-acetyl aspartate,50898
house sparrow,50898
nebulizer,50898
tyrosinemia,50898
uterine bleeding,50898
Glucocorticoid receptor,50898
chlorate,50898
ment,50898
Heartburn,50898
sleep-wake cycle,50898
Delta omega,50898
myelosuppressive,50898
rhizobacteria,50898
Rayleigh-Taylor instability,50898
terminator,50898
bone collar,50898
The routine,50898
Fae,50898
Inattention,50898
pumpellyite,50898
Biofilm,50898
mercuric chloride,50898
coniferin,50898
perivascular space,50898
DNA-DNA hybridization,50898
Pilbara,50898
double-stranded RNA viruses,50898
alpha-ketoisocaproate,50898
azeotrope,50898
specific identification,50898
multiorgan failure,50898
terfenadine,50898
Gerzensee,50898
Victoria Land,50898
multi-frequency,50898
S-100,50898
dimethoate,50898
Alboran Sea,50898
sulphation,50898
dantrolene,50898
half-graben,50898
Cyproterone acetate,50898
ARFGEF2,50898
syenite,50898
differential stress,50898
flavonol,50898
MRK,50898
postmetamorphic,50898
o-phenanthroline,50898
herbimycin,50898
stoat,50898
Chemiluminescence,50898
transposable elements,50898
environmental hypoxia,50898
Kelvin equation,50898
Voronoi cell,50898
FUR,50898
protein synthesis inhibitor,50898
EDX,50898
ventral horn,50898
maltase,50898
Substituent,50898
acetyl-CoA carboxylase,50898
prostacyclin,50898
OP-1,50898
The inheritance,50898
OPC,50898
baculovirus,50898
A10,50898
spadices,50898
Chloramphenicol,50898
Rieske,50898
Mai Tai,50898
pyruvate metabolism,50898
tert-butyl alcohol,50898
SbAs,50898
deeper water,50898
synrift,50898
Mediterranean climate,50898
mol.%,50898
CDH3,50898
sodium azide,50898
cross-linking agent,50898
Orchidectomy,50898
arabica coffee,50898
cheese cloth,50898
cis-platin,50898
desloratadine,50898
isoprene,50898
caveolae,50898
diethylpyrocarbonate,50898
xanthophyll,50898
Sveconorwegian,50898
mesulergine,50898
cardiac toxicity,50898
recombinant fusion protein,50898
Red marrow,50898
TUNEL assay,50898
Raltitrexed,50898
2B1,50898
Granodiorite,50898
decarboxylated,50898
arteriolosclerosis,50898
Mouthwash,50898
intramedullary nail,50898
bacterial keratitis,50898
dicarboxylates,50898
daidzein,50898
Ca2+ ATPase,50898
Alkali feldspar,50898
mitogenesis,50898
Allergic reaction,50898
Spleen,50898
polarization function,50898
Qalb,50898
sporocysts,50898
A levels,50898
Type I diabetes,50898
spatial disorientation,50898
ox,50898
crown gall,50898
facultatively anaerobic,50898
budgerigar,50898
laser scan,50898
electron microprobe,50898
painting probes,50898
phosphoserine,50898
steroidal antiandrogen,50898
p-aminophenol,50898
formula D,50898
Osteoinduction,50898
dysplastic nevi,50898
Pargyline,50898
sapphirine,50898
Apocrine,50898
L-rhamnose,50898
Lepidocyrtus,50898
intracellular fluid,50898
P. putida,50898
whey,50898
ammonoid,50898
Ether,50898
constrictive pericarditis,50898
Cyclosporine,50898
carbohydrate binding sites,50898
AMP deaminase,50898
silicate mineral,50898
high speed transport,50898
atretic,50898
Bezafibrate,50898
Triton,50898
ribosomal binding site,50898
Midazolam,50898
double dose,50898
Afipia,50898
HNX,50898
azurophil,50898
retinyl palmitate,50898
erythroblast,50898
enlarged spleen,50898
absolute ages,50898
STx2,50898
neurosteroid,50898
myelocytic leukemia,50898
zolantidine,50898
chondrodysplasia punctata,50898
critical level,50898
Raman Spectroscopy,50898
axillary lymph nodes,50898
Iberian plate,50898
naltrindole,50898
cerebral haemorrhage,50898
Subachoque Formation,50898
hybridize,50898
NMe,50898
HupA,50898
methyltryptamine,50898
pirarubicin,50898
DNA condensation,50898
critical phenomena,50898
ring dove,50898
Rana,50898
vasoactive intestinal peptide (VIP),50898
UUA,50898
transport coefficient,50898
Conjugate,50898
peanut agglutinin,50898
mechanoreceptive,50898
gus,50898
neurotransmitter system,50898
GPIIb/IIIa,50898
NMDA antagonist,50898
small-cell lung carcinoma,50898
M5A,50898
denaturated,50898
Giemsa stain,50898
immiscible,50898
5-HT2B,50898
GIAA,50898
cervical mucus,50898
splanchnic circulation,50898
co-incubation,50898
electroreception,50898
pelvic inflammatory diseases,50898
Iranian Jewish,50898
Agfa,50898
Rhizobiaceae,50898
cobalt oxide,50898
groundnut,50898
MR angiography,50898
secondary injury,50898
ameboid,50898
Xanthomonas,50898
lymphatic system,50898
Biochim Biophys Acta,50898
sodium sensitivity,50898
lyotropic,50898
VICs,50898
Interleukins,50898
3-hydroxy-3-methylglutaryl CoA,50898
osteolysis,50898
p21cip1,50898
Strand,50898
glass-ceramic,50898
Hydrocephalus,50898
fat necrosis,50898
TGF beta 2,50898
TGF beta 1,50898
metaplastic,50898
chemical formula,50898
Trichoniscus pusillus,50898
Randle,50898
Bretazenil,50898
grey partridge,50898
ascidian,50898
BAPS,50898
5-HT2C,50898
bond order,50898
3-hydroxyisovalerate,50898
Catharanthus,50898
Michaelis-Menten,50898
The overnight,50898
CNCbl,50898
HARPS-N,50898
Thallium-201,50898
omental cake,50898
bullectomy,50898
koilocytosis,50898
Haplotype estimation,50898
Quartz,50898
neonatal jaundice,50898
ThB,50898
fractional crystallisation,50898
thin-skinned deformation,50898
minoxidil,50898
yeast two-hybrid system,50898
Neutropenic,50898
factor VIIa,50898
bruit,50898
cortical plasticity,50898
ppGpp,50898
Acetobacter xylinum,50898
Hypomagnesaemia,50898
Pulmonary pathology,50898
two-dimensional NMR spectroscopy,50898
diabetes insipidus,50898
thermostability,50898
suppletion,50898
Acetone,50898
2-aminoethanethiol,50898
pleural space,50898
heteroduplex analysis,50898
peptic strictures,50898
Lanzarote,50898
Ebselen,50898
Sequence conservation,50898
naphthalenesulfonic,50898
prohormone convertase,50898
cinanserin,50898
genital warts,50898
immunoreactivities,50898
Telemark,50898
gynaecological cancer,50898
glycosyl acceptor,50898
Metyrapone,50898
bryostatins,50898
triple resonance experiments,50898
corpora lutea,50898
pH 1,50898
acriflavine,50898
TMF,50898
Cancer Research Campaign,50898
adjunct therapy,50898
flow stress,50898
hepatocyte nuclear factor 4 alpha,50898
Alu repeats,50898
kanamycin,50898
closed system,50898
fatty streaks,50898
color reaction,50898
Ukrainian Shield,50898
sucrose gradient,50898
Acute pancreatitis,50898
epigastric region,50898
penicillin acylase,50898
re-uptake,50898
KPV,50898
urogenital tract,50898
penis retractor muscle,50898
"1,4-cyclohexadiene",50898
Vascular smooth muscle,50898
histamine H3 receptor,50898
Gel electrophoresis,50898
extensional tectonics,50898
Philoscia muscorum,50898
2C9,50898
The Fan,50898
Perichondrium,50898
absolute motion,50898
glauconitic,50898
sodium D lines,50898
template reaction,50898
Radioactivity,50898
molecular mimicry,50898
shear zone,50898
MMS,50898
mot,50898
chi-squared test,50898
Lengenbach,50898
ritanserin,50898
HNF4,50898
trichloroethene,50898
gpa,50898
Actinomycin D,50898
Rodrigues Island,50898
glaciofluvial,50898
hydroxybenzoic acids,50898
logP,50898
sweet potato,50898
Atosiban,50898
STR1,50898
mass action,50898
background adaptation,50898
Maryland,50898
ruthenium red,50898
orogenic system,50898
Bouguer,50898
Visean,50898
oogenesis,50898
cervical margins,50898
myoepithelial cells,50898
retained placenta,50898
L-glutamine,50898
Kiel,50898
thiirane,50898
phytogeographical,50898
subclavian vein,50898
tesla,50898
scutellum,50898
fadrozole,50898
secondary metabolite,50898
Expanded disability status scale,50898
loop 4,50898
alkali feldspar,50898
gyrB,50898
Hypotension,50898
7/27,50898
Lorazepam,50898
gonadal steroids,50898
cocci,50898
brome mosaic virus,50898
Herefoss,50898
hydroxydaunorubicin,50898
Bild,50898
cysteinyl,50898
Svecofennian,50898
pH 8,50898
amidated,50898
groundnuts,50898
buffer solution,50898
Tolrestat,50898
ZEME,50898
memory T lymphocytes,50898
KeV,50898
Olfactory bulb,50898
marginal zone B-cell,50898
LVI,50898
Zariski open,50898
luted,50898
Isoplexis,50898
acrophobia,50898
xylylene,50898
dumbbells,50898
cumulus oophorus,50898
tobacco rattle virus,50898
pulse radiolysis,50898
lymphocyte subsets,50898
parasitic resistance,50898
Tong,50898
hypersurface,50898
Aarhus,50898
polydisperse,50898
U.S.$,50898
closed interval,50898
parasitic plant,50898
Chlorobium,50898
fatty acid synthetase complex,50898
Orca,50898
acid-base titration,50898
ROSIS,50898
Gavdos,50898
Rajasthan,50898
M-estimator,50898
Azorhizobium,50898
movement protein,50898
causal attribution,50898
theta*,50898
"Warsaw, IN",50898
corticotomy,50898
Chronic lymphocytic leukemia,50898
cdc2,50898
neuronal ceroid lipofuscinoses,50898
penile inversion,50898
beagle,50898
monoterpenoid,50898
tricky,50898
payment card,50898
employment protection legislation,50898
insulin receptor substrate-1,50898
Ferriman-Gallwey score,50898
electrical discharge,50898
distributive shock,50898
Helix aspersa,50898
Bannock,50898
Pangenesis,50898
haematoporphyrin,50898
hoarseness,50898
chemical reaction,50898
chemical warfare agent,50898
left pulmonary artery,50898
qubic,50898
Babyrousa babyrussa,50898
ARDRA,50898
saturated hydrocarbon,50898
magneto-optics,50898
nonstoichiometric,50898
antimetabolite,50898
semicontinuous,50898
D-galactose,50898
branched chain amino acid,50898
sublimation,50898
quadratic variation,50898
turnip yellow mosaic virus,50898
Riemann problem,50898
dipterocarp,50898
Protandry,50898
carpoolers,50898
amplitude modulation,50898
Signal processing,50898
"receptor, insulin",50898
equilibrium price,50898
fast Fourier transform (FFT),50898
vinca alkaloid,50898
User Participation,50898
labour exchange,50898
house mice,50898
linearly ordered,50898
Nylon,50898
behavioral scientist,50898
hand-over,50898
street sweeping,50898
test anxiety,50898
polychlorotrifluoroethylene,50898
Caryophyllaceae,50898
Solow,50898
Bristol Myers Squibb,50898
managed retreat,50898
cordotomy,50898
hashtag,50898
Flavonoid,50898
Superimposition,50898
GHRP-2,50898
demodulator,50898
Pb-Pb,50898
chi-square distribution,50898
Mycobacterium neoaurum,50898
vacancy chain,50898
Light Therapy,50898
parallel programming,50898
lithography,50898
impact event,50898
transsexuality,50898
orthognatic surgery,50898
social democracy,50898
Pareto improvement,50898
Heiligenhafen,50898
vibrating reed,50898
adenomatous polyposis coli,50898
Lacertidae,50898
food waste,50898
endocrinologist,50898
ammonite,50898
diethylether,50898
temperate countries,50898
catalytic partial oxidation,50898
methylcyclohexane,50898
lung-cancer cells,50898
pituitary hormones,50898
free base,50898
Sonneville,50898
Patterson map,50898
tachykinin,50898
phrenic nerve,50898
far-infrared,50898
Amorphophallus,50898
apophysis,50898
Storage ring,50898
Jackson System Development,50898
neuromuscular block,50898
Songkhla,50898
tram,50898
antiestrogen,50898
Azorhizobium caulinodans,50898
"2,5-dihydroxybenzoate",50898
TMSOTf,50898
enteropathogens,50898
Saskatchewan Accelerator Laboratory,50898
Garcke,50898
Java Remote Method Invocation,50898
computer-assisted personal interviewing,50898
Estimator,50898
flow meter,50898
Strychnos mellodora,50898
symmetry-breaking,50898
testicular prostheses,50898
Tomocerus,50898
Senna siamea,50898
tunicate,50898
Mobile device,50898
lipocortin-1,50898
EDAC,50898
cohort analysis,50898
twin method,50898
Terebratellidae,50898
reverse link,50898
Y films,50898
PPNA,50898
phloroglucinol,50898
escape route,50898
Hyperalgesia,50898
Art Nouveau,50898
Snaith,50898
grassland soils,50898
soil zoology,50898
obturate,50898
rare-earth metals,50898
Q48,50898
clock recovery,50898
microaerophilic,50898
Hoechst 33258,50898
Caledonian orogeny,50898
unstructured data,50898
typical antipsychotic,50898
Kanguk Formation,50898
terminal services,50898
macrolide resistance,50898
Hamiltonian dynamics,50898
German Democratic Republic (GDR),50898
Q cycle,50898
podiatry,50898
Cote d'Ivoire,50898
Barnstable,50898
laser-cooled,50898
highly suspect,50898
Adriatic Sea,50898
Gerrit Rietveld Academie,50898
propylamine,50898
supercoil,50898
C106,50898
network economy,50898
oocysts,50898
Orderliness,50898
CCNU,50898
fumigant,50898
loss probability,50898
unipennate muscle,50898
Aristida,50898
Vergence,50898
independent identically distributed,50898
social network theory,50898
bryozoan,50898
Hofmeister series,50898
sedge,50898
electromagnetic waves,50898
D-code,50898
endochondral,50898
shell structure,50898
phosphatidylethanolamines,50898
nonlinear system,50898
medical screening,50898
Navier-Stokes,50898
Apeldoorn,50898
Acer,50898
physical science,50898
devazepide,50898
FASEB,50898
Fiji,50898
transition metal complex,50898
Ethyol,50898
MRC-5,50898
Feulgen,50898
Oxandrolone,50898
endoleak,50898
hydrography,50898
Hardening,50898
type site,50898
asymptotically stable,50898
spatial network,50898
Bergslagen,50898
postmortem brain tissue,50898
Cognitive therapy,50898
Aphanizomenon flos-aquae,50898
toad,50898
Netherlands Antilles,50898
standing frames,50898
natural capital,50898
GPB,50898
wader,50898
Carabidae,50898
D-xylose,50898
Willem Vrolik,50898
sodalite,50898
Typhlonectes compressicauda,50898
periodic point,50898
foreign exchange,50898
Nine balls,50898
arteriotomy,50898
Hillis,50898
coal-fired power plant,50898
cricoid,50898
Boehringer Mannheim,50898
self-hypnosis,50898
a.u.,50898
median operator,50898
spin-spin relaxation,50898
mordenite,50898
4-4-4-4,50898
Eastman,50898
lowland moist forests,50898
power-law fluid,50898
Calvinists,50898
dynamic scaling,50898
Stokes-Einstein relation,50898
microbodies,50898
MH4,50898
molluscivorous,50898
thermal desorption spectroscopy,50898
hand filing,50898
Stapf,50898
extensor pollicis longus,50898
Gymnophiona,50898
haemolytic anaemia,50898
bacteriophage MS2,50898
L-Histidine,50898
Bronchoscopy,50898
code reuse,50898
Broad Fourteens,50898
ethnobiology,50898
NS2,50898
Hycamtin,50898
Greenland Ice Sheet,50898
S10,50898
Jokela,50898
gastric antrum,50898
granulosa,50898
ATP-sensitive potassium channel,50898
Garcinia,50898
epichlorohydrin,50898
E-selectivity,50898
BALTIC,50898
compressor,50898
isonitrile,50898
Mitra,50898
vitamin K2,50898
Stromal cell-derived factor-1,50898
Chitinase,50898
CF4,50898
leg swelling,50898
malting,50898
hydrocephalic,50898
spondylodiscitis,50898
4Gy,50898
oral biofilm,50898
group-subgroup,50898
gastric glands,50898
induration,50898
trade wind,50898
oxamyl,50898
Diazinon,50898
Harcourt,50898
secretory component,50898
Tournaisian age,50898
Hydrogen bonding,50898
neural cell adhesion molecule,50898
acrivastine,50898
orbital velocity,50898
trabecula,50898
SUR1,50898
adnexa,50898
KMnO4,50898
PEX1,50898
ventral prostate,50898
skiff,50898
Staphylococcus hominis,50898
structural modification,50898
phenylarsine oxide,50898
keratinization,50898
Vortioxetine,50898
thermal degradation,50898
Merlangius merlangus,50898
The syn,50898
kinematic coupling,50898
selenol,50898
Agder,50898
ence,50898
lymphoid malignancy,50898
methomyl,50898
spasmolytic,50898
Electron microprobe,50898
Fast atom bombardment,50898
Auger electrons,50898
buta,50898
stop-codon,50898
supramolecular chemistry,50898
H11,50898
intermediate host,50898
selection coefficient,50898
Bivariate analysis,50898
acinus,50898
4-nitrophenol,50898
opioidergic,50898
focal depth,50898
Euler pole,50898
N-hydroxysuccinimide,50898
back-stripping,50898
isovolumic relaxation time,50898
phenylethylamine,50898
cetirizine,50898
central pattern generator,50898
collectin,50898
terp,50898
selectins,50898
Maracaibo Basin,50898
N-acetyl-p-benzoquinone imine,50898
ZP3,50898
c418,50898
methiocarb,50898
No relations,50898
Eleven days,50898
growth attenuation,50898
spongiosis,50898
heteroduplex,50898
kappa-opioid receptors,50898
carrier system,50898
endocervix,50898
anatexis,50898
ice-rafted debris,50898
xylol,50898
sulfone,50898
herpes zoster ophthalmicus,50898
paraganglia,50898
glomerulus,50898
cost-utility analyses,50898
Saalian,50898
Pyrazole,50898
exosphere,50898
liver sinusoids,50898
Magnesium,50898
habenula,50898
North American Menopause Society,50898
ab initio calculation,50898
hereditary spherocytosis,50898
Lobenzarit,50898
trimetrexate,50898
40S,50898
hydrocarbon exploration,50898
dysgenic,50898
sea urchin,50898
ornithine aminotransferase,50898
triprolidine,50898
Oniscus asellus,50898
necrotic tissue,50898
counterstain,50898
compressive stress,50898
myosin light-chain kinase,50898
"5,6,7,8",50898
Lorca,50898
cytochromes P-450,50898
meclozine,50898
heterologous desensitization,50898
catalytic triad,50898
SDS PAGE,50898
beta-Naphthoflavone,50898
dorter,50898
HLA-Dr,50898
rhizospheric,50898
membrana granulosa,50898
"1,2-dithiolane",50898
inductive capacity,50898
Yokoyama,50898
Abciximab,50898
X5,50898
GPV,50898
Entomobrya,50898
ATP2A1,50898
dihydrolipoamide dehydrogenase,50898
crevicular,50898
tautomer,50898
EF-hands,50898
Liss,50898
Pelops,50898
X6,50898
furafylline,50898
Phenobarbital,50898
Iodine,50898
Photobacterium phosphoreum,50898
CTFE,50898
skin lesion,50898
retrosplenial cortex,50898
tufted cells,50898
KCN,50898
telophase,50898
IP3,50898
Overproduction,50898
activated clotting time,50898
Social defeat,50898
silicic,50898
Porcellio,50898
Armadillidium,50898
Bad,50898
Suzuki,50898
continuous flow reactor,50898
Triphenyltin,50898
face-centred cubic,50898
wrench,50898
Heckel,50898
metal-insulator transitions,50898
amsacrine,50898
neomycin sulfate,50898
polyacetylene,50898
Boolean algebra,50898
Monin-Obukhov similarity theory,50898
Remote Procedure Call,50898
cyclin B,50898
MgF2,50898
Meighen,50898
exponential integral,50898
chondrodysplasias,50898
rhGH,50898
Planck constant,50898
gyroscope,50898
Acetobacter,50898
envelope modulation,50898
Single Photon Emission Computed Tomography,50898
Western Gneiss Region,50898
trigonal pyramidal,50898
mental nerve,50898
silent disease,50898
proctoscopy,50898
Polar body,50898
KPa,50898
overdetermined system,50898
absolute pressure,50898
depth perception,50898
forklift truck,50898
dopaminergic inputs,50898
South Georgia,50898
NKT cell,50898
heart urchin,50898
Rabinovich,50898
clitoris,50898
eliminativism,50898
Binntal,50898
sulfonamides,50898
Bugula,50898
trichotomous,50898
2-methyltetrahydrofuran,50898
semantic bleaching,50898
time reversal,50898
Freeze-drying,50898
double exposure,50898
"3,4-dihydroxyphenethylamine",50898
ec,50898
nonmeager,50898
drying agent,50898
Katanga,50898
butadienes,50898
Fokker-Planck equation,50898
high endothelial venule,50898
lemmas,50898
Declarative knowledge,50898
third-degree AV block,50898
Social democratic,50898
visual pigment,50898
minimum phase,50898
Tetragenococcus,50898
fluorescence polarization immunoassay,50898
location parameter,50898
services marketing,50898
triadimefon,50898
long jump,50898
North Holland,50898
southern Alps,50898
Lipid A,50898
hyperkalemia,50898
topical drug,50898
design matrix,50898
Base J,50898
climatic factor,50898
pyrimethamine,50898
natural reservoir,50898
strigolactone,50898
Anthraquinone,50898
deoxycytidine deaminase,50898
Brierley,50898
contrast media,50898
dental surgery,50898
Monte-Carlo method,50898
bima,50898
Cley Marshes,50898
kinetin,50898
western yew,50898
Iloprost,50898
solvolysis,50898
video overlay,50898
spurt,50898
Difference equations,50898
benzenetriol,50898
dental bonding,50898
zoonoses,50898
Thermogenesis,50898
guanylyl cyclase,50898
diethyl sulfate,50898
protective group,50898
1.0 point,50898
Koufonisi,50898
radula,50898
Bensheim,50898
control engineering,50898
regulon,50898
pelagic sediments,50898
Bioelectrical impedance analysis,50898
Lucifer Yellow,50898
sedimentary environments,50898
non-falsifiable,50898
methanol dehydrogenase,50898
streptococcal bacteria,50898
Canadian Shield,50898
go-moku,50898
preterm infant,50898
in-group favoritism,50898
Nonsense mutations,50898
stochastic shocks,50898
young red blood cells,50898
acid-labile subunit,50898
Progesterone,50898
gradient flow,50898
infrared thermometer,50898
capital controls,50898
JSD,50898
cytolysis,50898
system call,50898
Macrolides,50898
open innovation,50898
differential operator,50898
protein kinaSe C (PKC),50898
sigmatropic rearrangement,50898
Pseudoknot,50898
Monolayer,50898
benzotriazole,50898
delta function,50898
J 9,50898
windkessel,50898
silica-based DNA extraction,50898
Multivariate statistics,50898
katabatic wind,50898
porphin,50898
geranyl acetate,50898
edge city,50898
A. pinnatifidum,50898
"1,2-hydrogen shift",50898
neonatal adrenoleukodystrophy,50898
Fernelius,50898
phenylalanine ammonia lyase,50898
hexobarbital,50898
Therapeutic modalities,50898
ectromelia virus,50898
apophyseal,50898
policy sciences,50898
diophantine approximation,50898
rubor,50898
dic,50898
Dabie Shan,50898
phase variation,50898
coenzyme,50898
crown ethers,50898
translational kinetic energy,50898
phase modulation,50898
Ankyrin,50898
Mycena,50898
laryngeal edema,50898
recapitulation,50898
EC 4.1.1.28,50898
chromosome instability,50898
A 49,50898
Hat Yai,50898
esophagoscopy,50898
pancreatic beta cell,50898
solenoid,50898
GSFC,50898
Xenopus Laevis,50898
"Des Plaines, IL",50898
classic case,50898
Anxiety sensitivity,50898
transphosphorylation,50898
Neuraminidase,50898
mesophyll tissue,50898
Halberstadt,50898
amphipod,50898
NotI,50898
inden,50898
OPE,50898
molecular Hamiltonian,50898
trend component,50898
naturalistic fallacy,50898
Pebas Formation,50898
3-methylpyridine,50898
enoyl reductase,50898
Conus pennaceus,50898
pectoralis major muscle,50898
environment variable,50898
micritic,50898
Ecteinascidia,50898
tearfulness,50898
ethylene dibromide,50898
ccm,50898
removable prosthesis,50898
Cymbopogon,50898
Laak,50898
Eureka Sound,50898
"1,2-dichloroethane",50898
rhinoplasty,50898
Petunia integrifolia,50898
multidimensional analysis,50898
Minimally invasive surgery,50898
nib,50898
procollagen I,50898
coliphage,50898
phenetic,50898
penile prosthesis,50898
s-wave,50898
Phase I clinical trial,50898
elasticity theory,50898
DFB,50898
Wallingford,50898
Scyliorhinus,50898
deep core,50898
first-order terms,50898
physical memory,50898
thrombopenia,50898
brain sex,50898
statistical mechanical,50898
Br2,50898
phosphatidylethanolamine,50898
IFS,50898
ethological,50898
system H,50898
neuroprotectant,50898
paracompact space,50898
post partum,50898
Latex beads,50898
Adduct,50898
brittle deformation,50898
loop 1,50898
barrier methods,50898
Gorski,50898
calender,50898
Soen,50898
starfish,50898
crossbridge,50898
enzyme induction,50898
Late Weichselian,50898
anterior commissure,50898
Garlic,50898
phenylhydrazone,50898
centrally active,50898
Sensitization,50898
Guadalquivir,50898
FCCP,50898
Bend,50898
Decrement,50898
Anaerobic growth,50898
chlorzoxazone,50898
cytotoxic T cell,50898
oxygen deprivation,50898
erosion phase,50898
Gecko,50898
2K,50898
squamate,50898
gekko,50898
CD8+ cytotoxic T cell,50898
lyophilization,50898
Bastnasite,50898
AZ,50898
Selenocysteine,50898
pyrroline,50898
8-oxoguanine,50898
polyvinyl chloride,50898
saddle-node bifurcation,50898
nut,50898
statistical control,50898
infantile Refsum disease,50898
Monark,50898
sugarbeet,50898
item-total correlation,50898
cervical nerves,50898
Glycoprotein IIb/IIIa,50898
convective motion,50898
Gallotia galloti,50898
familial male-limited precocious puberty,50898
interleukin 2,50898
epigeal,50898
high resolution computed tomography,50898
electrosurgery,50898
glucuronic acids,50898
gastric epithelium,50898
The intercept,50898
singular values,50898
Organic solvent,50898
deontic,50898
Electron correlation,50898
East Asian monsoon,50898
Rome Statute,50898
drug carrier,50898
homoscedasticity,50898
address space,50898
cellular localisation,50898
stent-graft,50898
MTM,50898
ZrO2,50898
real analytic,50898
Mozambican,50898
compositing,50898
Soil profile,50898
free-base,50898
cellular immune system,50898
impromidine,50898
Acanthamoeba infection,50898
ultrafilter,50898
Ligase chain reaction,50898
linear phase,50898
Denmark Strait,50898
Rhenium,50898
anoxic basin,50898
Corum,50898
GpC,50898
permease,50898
Coevolution,50898
Echinocardium cordatum,50898
Nyquist,50898
perovskite structure,50898
Rana temporaria,50898
plant virus,50898
M-5,50898
Operating theater,50898
postictal,50898
Rana ridibunda,50898
sedimentary environment,50898
atomization energies,50898
game-tree,50898
ligand efficiency,50898
polyandrous,50898
Intoxication,50898
hemineglect,50898
BANA,50898
resonant energy transfer,50898
coronaridine,50898
LiCl,50898
antigravity,50898
90 nm,50898
Turonian,50898
nmr spectroscopy,50898
pulmonary ventilation,50898
stearate,50898
crossite,50898
ides,50898
transmitter molecule,50898
dermatome,50898
FSW,50898
mixed economy,50898
thaumatin,50898
NiCl2,50898
Taxus brevifolia,50898
cell nuclei,50898
concentration cell,50898
Uruguay,50898
MP4,50898
N-ethyl-N-nitrosourea,50898
RMC,50898
distichiasis,50898
mollusca,50898
pyloric,50898
zona pellucida,50898
Immunophenotyping,50898
naphthalenesulfonates,50898
polymetallic,50898
hip replacement,50898
national weather bureau,50898
isolobal,50898
TBARS,50898
zygoma,50898
Anthers,50898
hypnosis,50898
mescalin,50898
Rutilus rutilus,50898
NPAR,50898
asymmetric addition,50898
negative externality,50898
negatively stained,50898
tangent bundle,50898
Peniophora,50898
laryngectomies,50898
Solow growth model,50898
dipole magnet,50898
aeolian deposits,50898
Jonckheere,50898
Hololena,50898
convex polyhedron,50898
isosorbide mononitrate,50898
chaotic behavior,50898
kinetic energy operator,50898
Secondary structure,50898
L-threonine,50898
NIOSH,50898
argon-ion,50898
Bancassurance,50898
partition equilibrium,50898
statistical parameter,50898
Bi3+,50898
Dacron,50898
homochiral,50898
transmissible spongiform encephalopathies,50898
wrong direction,50898
stopcock,50898
rhamnolipid,50898
Bakkum,50898
hypergeometric,50898
biostratigraphically,50898
sonar,50898
cosmogenic isotopes,50898
uterine leiomyomata,50898
nitromethane,50898
trachytic,50898
inverse method,50898
passive component,50898
aclarubicin,50898
equational logic,50898
sickness behavior,50898
pai,50898
stochastic simulation,50898
osmotic shock,50898
p-terphenyl,50898
Ecological Footprint,50898
ELV,50898
phase transfer catalyst,50898
Rijn,50898
arcade,50898
credit default swap,50898
design thinking,50898
Van der Valk,50898
monopolistic competition,50898
off-shell,50898
electrophysiologic,50898
uterine perforation,50898
Cynodon dactylon,50898
opposite-sex twins,50898
phosphine ligand,50898
Borland,50898
broad jump,50898
beta-alanine,50898
LIOH,50898
polymethylene,50898
Vaseline,50898
Combinatory Logic,50898
methylxanthine,50898
Robusta coffee,50898
montelukast,50898
Corophium volutator,50898
spanner,50898
Resonance-enhanced multiphoton ionization,50898
split-step method,50898
Morinda citrifolia,50898
Union Cycliste Internationale,50898
Batenburg,50898
tetrahedral symmetry,50898
HNO2,50898
polycarbonate,50898
ldh,50898
Microprobe,50898
L-type calcium channel,50898
intransitivity,50898
altered mental status,50898
De Stijl,50898
nitrosonium,50898
Philosophical Psychology,50898
Bruce White,50898
Moscow region,50898
m5,50898
surgical pathologist,50898
normal vector,50898
anticarcinogenic,50898
antimutagenic,50898
phenindamine,50898
epinastine,50898
cognitive interventions,50898
Trolox,50898
degranulate,50898
encoding specificity,50898
turkey,50898
sedimentary structures,50898
adenovirus 5,50898
Hodgkin-Huxley model,50898
F-test,50898
DEAE,50898
World Health organization (WHO),50898
TSEs,50898
CCM,50898
gassed,50898
chessboard,50898
phagocytized,50898
Diverticular disease,50898
cycle 13,50898
barrier nursing,50898
escape probability,50898
q35,50898
T set,50898
Solea solea,50898
Proxima,50898
Gelendzhik,50898
ricin,50898
independent assortment,50898
src homology 2 domain-containing,50898
VWO,50898
hybridizes,50898
Statistical model,50898
aponeuroses,50898
Protecting group,50898
thermal resistance,50898
stochastic differential equations,50898
transpulmonary pressure,50898
OmpA,50898
Arum maculatum,50898
countably paracompact,50898
fibrillary astrocytoma,50898
T. spiralis,50898
mastopexy,50898
Congo red,50898
octapeptide,50898
methyl migration,50898
thalassaemia,50898
oligomenorrhea,50898
colloidal particle,50898
cervical nerve,50898
periplasmic space,50898
Numerical integration,50898
multiple carboxylase deficiency,50898
deuteromycete,50898
serine/threonine protein kinase,50898
Flow injection analysis,50898
Regimbald,50898
Agfa-Gevaert,50898
Red Knot,50898
endoperoxide,50898
4-hydroxyphenylpyruvate dioxygenase,50898
Dirichlet process,50898
3e,50898
MoK,50898
minimum wage,50898
gluteus maximus muscle,50898
hypotonic solution,50898
biotelemetry,50898
conjugated equine estrogen,50898
sexual attraction,50898
sphingoid base,50898
plastic surgeon,50898
dehydration reaction,50898
Anethole,50898
upper triangular,50898
accretionary complex,50898
Pallas,50898
graphite furnace atomic absorption,50898
bogus pipeline,50898
photosensor,50898
natural history study,50898
patient registries,50898
Tyrrhenian Basin,50898
Guanosine,50898
Sony,50898
chalcopyrite,50898
spin echo,50898
climate simulation,50898
Strecker synthesis,50898
BSTc,50898
tonotopic,50898
tampon,50898
Phocoena,50898
chiral center,50898
organic disorder,50898
saruplase,50898
pickpocket,50898
hydride shift,50898
Heterogeneous catalysis,50898
ultisol,50898
psilocybin,50898
transition region,50898
stimulus protocol,50898
optical activity,50898
Macintosh IIfx,50898
Solanum tuberosum,50898
r-protein,50898
24 minutes,50898
tobacco cessation,50898
Complementarity,50898
esophageal manometry,50898
Surfactant protein C,50898
systemic acquired resistance,50898
Clq,50898
thermochronological,50898
Magnetostratigraphy,50898
ketoprofen,50898
sulfinamide,50898
Evolutionary epistemology,50898
carbon black,50898
tabersonine,50898
first-row transition metal,50898
Acton,50898
genome comparisons,50898
wellbore,50898
glass temperature,50898
hydrogen cyanide,50898
vitrophyre,50898
ethnocentric,50898
snapdragon,50898
switched video,50898
Uveal melanoma,50898
person-environment fit,50898
ultraviolet photoelectron spectroscopy,50898
polarized light microscopy,50898
Medium spiny neurons,50898
aminoacyl tRNA,50898
C-26,50898
braided river,50898
Twisk,50898
Roon,50898
exopolysaccharide,50898
No protection,50898
multistep synthesis,50898
Shoshana Felman,50898
Artemia,50898
Beta vulgaris,50898
magnetic relaxation,50898
lacrimal system,50898
low-angle laser light scattering,50898
American Midwest,50898
plasma-sprayed,50898
Slater orbitals,50898
cyclopentyl,50898
Photoexcitation,50898
programming language,50898
froth,50898
pentobarbital,50898
quasi-likelihood,50898
Philosophical analysis,50898
3-hydroxybutyrate,50898
levofloxacin,50898
angular degree,50898
phenazine,50898
Spondylolysis,50898
proof-number search,50898
carapace,50898
Esterification,50898
Aggradation,50898
Phase transition,50898
true negative,50898
heat conduction,50898
electron spin resonance,50898
Flip bifurcation,50898
devitrified,50898
high vocal center,50898
agricultural subsidies,50898
cyclopropene,50898
Blosseville,50898
Orobanche crenata,50898
cell mediated immunity,50898
single linkage,50898
dbar,50898
hand-held computer,50898
BIP,50898
ambulatory care,50898
magnetic declination,50898
numerically stable,50898
International University,50898
enes,50898
amidine,50898
neuritic plaque,50898
Pleurodeles,50898
dehydrohalogenation,50898
radionuclide imaging,50898
iodoacetamide,50898
dentine bonding agents,50898
dolomitic,50898
nasal administration,50898
murein,50898
DELPHI,50898
methodological individualism,50898
Long-term stability,50898
lingual nerve,50898
Reverberation,50898
spinor bundle,50898
Correlation dimension,50898
DFL,50898
decidable,50898
Bent,50898
UV-vis spectroscopy,50898
mho,50898
butyrate kinase,50898
Eysenck,50898
Hologic,50898
dimethylaminoethanol,50898
Ige,50898
fuchsin,50898
Digitaria,50898
contrariety,50898
critical phenomenon,50898
F101,50898
zingiberene,50898
genetic screening,50898
characteristic X-rays,50898
Caravaca,50898
hydroxyethylrutoside,50898
proton decay,50898
actinomycete,50898
adiabatic process,50898
membrane filtration,50898
polymorphonuclear neutrophil,50898
turbulence kinetic energy,50898
pager,50898
PEs.,50898
magnesium bromide,50898
column chromatography,50898
ST-Segment Elevation Myocardial Infarction,50898
GISSI,50898
San Carlos,50898
Bayer HealthCare Pharmaceuticals,50898
diimine,50898
Whippany,50898
D-X,50898
Corticosterone,50898
electronic news media,50898
levonorgestrel,50898
Ovulation,50898
Zebra mussel (Dreissena polymorpha),50898
insulin tolerance test,50898
Significant condition,50898
Monte Generoso,50898
screening mammogram,50898
dual polarization,50898
Curtius rearrangement,50898
zinc oxide,50898
monotonic transformation,50898
dmpd,50898
anthocyanidins,50898
business class,50898
Tandem mass spectrometry,50898
reflectometry,50898
L-arabinose,50898
methylpyridine,50898
aluminium oxide,50898
Phenomenology,50898
prazosin,50898
Cytokeratin,50898
hypotelorism,50898
Hyperthyroidism,50898
communication boards,50898
Time-domain reflectometry,50898
phase-velocity,50898
optical decay,50898
falsifiability,50898
brain inflammation,50898
kerr,50898
scintillation camera,50898
dental radiography,50898
curare,50898
biarticular muscle,50898
lobster,50898
explicit substitution,50898
mu opioid receptor,50898
staccato,50898
hematoporphyrin,50898
HMG-CoA reductase inhibitor,50898
X-linked diseases,50898
cis-stilbene,50898
high penetrance,50898
Norberg,50898
xanthines,50898
Webster,50898
essentialist,50898
Lux,50898
achondrogenesis type 1B,50898
lockout,50898
vacuum cleaner,50898
folliculin,50898
diethylnitrosamine,50898
scientific method,50898
Neef,50898
sodium periodate,50898
Ruhengeri,50898
ERCC6,50898
phosphogluconate dehydratase,50898
Newton-Raphson iteration,50898
arrow dynamics,50898
analytic expression,50898
isothiazolinone,50898
Forsk.,50898
active placebo,50898
deuterium oxide,50898
phase velocity,50898
diazomethane,50898
sialyl Lewis X,50898
Gramado,50898
radiosondes,50898
desferrioxamine,50898
dysaesthesia,50898
variant surface glycoprotein,50898
weak localization,50898
lithostratigraphic,50898
SDEs,50898
main-group element,50898
Vercors Plateau,50898
iodobenzamide,50898
object-based language,50898
Hep G2,50898
Schlern,50898
Biotinidase deficiency,50898
paracrystalline,50898
multiregional,50898
Cley,50898
Teflon,50898
arris,50898
period prevalence,50898
cisplatinum,50898
Dutch Reformed,50898
hairpin loop,50898
Oswestry,50898
postural hypotension,50898
SD 11,50898
Voronezh,50898
Chlamydia psittaci,50898
extirpated,50898
brush border,50898
transposons,50898
electrical conductivities,50898
exoplanets,50898
dark current,50898
Mortsel,50898
Bohr magneton,50898
Cenomanian-Turonian Boundary Event,50898
MHPG,50898
global stratotype,50898
Hybridomas,50898
At fields,50898
Oxford University,50898
LSD,50898
t-butanol,50898
exercise physiology,50898
ectopic pregnancies,50898
phloretin,50898
tertiary referral hospital,50898
relaxation technique,50898
Phosphocreatine,50898
Bode,50898
N-heterocyclic carbenes,50898
Mississippi,50898
hydrogen-like atom,50898
Medical oncology,50898
varnish,50898
malonyl-CoA,50898
retroperitoneal lymph nodes,50898
Aponeurosis,50898
magnesioriebeckite,50898
brightfield microscopy,50898
urticarial,50898
strain-rate,50898
pancreatic polypeptide,50898
pernicious anaemia,50898
Rhytisma acerinum,50898
cobaltite,50898
isochromosome,50898
differential thermal analysis,50898
neoadjuvant therapy,50898
dismutation,50898
minor disturbance,50898
GluR5,50898
ventral roots,50898
aquitard,50898
carbon price,50898
electron microscope,50898
dihydroflavonol,50898
nasal bridge,50898
Principal Components Analysis,50898
neurochemistry,50898
VDI,50898
BER.,50898
Digital imaging,50898
desmoglein,50898
4 blocks,50898
Etonogestrel,50898
STRs,50898
Monolayers,50898
K-10,50898
mechanical equilibrium,50898
ultra-short-wave,50898
functio laesa,50898
Crystal Ball,50898
nile blue,50898
Pyrex,50898
Tuscany,50898
diffraction grating,50898
The hospitals,50898
Astronotus ocellatus,50898
phocoena,50898
sulfoximine,50898
Anamnestic,50898
Oedothorax,50898
vapor pressure,50898
dichlorophenolindophenol,50898
free enthalpy,50898
industrial design,50898
beta-galactosides,50898
isopentenyl diphosphate,50898
natural circulation,50898
Chrome,50898
ochre,50898
Rationing,50898
edta,50898
chorismate,50898
chronic venous insufficiency,50898
evol,50898
DTP,50898
optical phonons,50898
"2,4-dinitrophenol",50898
Biomagnification,50898
spatial mode,50898
Mira,50898
k-space,50898
actus reus,50898
miracidia,50898
Harmonic Generation,50898
spin contamination,50898
Dutch Resistance,50898
XXXI,50898
diC,50898
hardgrounds,50898
dth,50898
diplopod,50898
GluR6,50898
paramagnetism,50898
Safranine,50898
multichannel seismic,50898
terminal electron acceptor,50898
multifetal pregnancy,50898
binucleated,50898
self-pulsation,50898
converges uniformly,50898
frequency dispersion,50898
colostomies,50898
Ruddy Turnstone,50898
Antifungal,50898
CSA group,50898
K6,50898
Fermentation,50898
paleogeographic,50898
ENAM,50898
self-avoiding random walks,50898
sling,50898
The stems,50898
tetra-n-butylammonium,50898
bornyl acetate,50898
Dnieper-Donets,50898
phosphonium salt,50898
tryptophan tryptophylquinone,50898
equilibrium temperature,50898
dodecahedra,50898
ANK1,50898
multicast,50898
xenopus,50898
multispectral imaging,50898
rath,50898
sigmoidally,50898
XBX,50898
economy class,50898
Massignano,50898
lollingite,50898
vomilenine,50898
group velocity dispersion,50898
EuCl3,50898
celebrity endorsement,50898
accumulation point,50898
Mainz,50898
signal peptidase,50898
reciprocal space,50898
Adenophostin,50898
Stevns Klint,50898
diarrhoeal disease,50898
irt,50898
Obukhov length,50898
protein mass spectrometry,50898
axillary vein,50898
depolarize,50898
cdk5,50898
vertical transmission,50898
Faial,50898
pike perch,50898
radiation budget,50898
polysemous,50898
air filter,50898
Bintje,50898
rectal discharge,50898
bursitis,50898
effective nuclear charge,50898
operator algebra,50898
CYP2C,50898
SKF-38393,50898
fluorocarbon,50898
Dyspnoea,50898
erector spinae muscles,50898
Generalized anxiety disorder,50898
radiometry,50898
Circular polarization,50898
iron-deficiency anaemia,50898
cancer stage,50898
negative mass,50898
Hydrolysis,50898
syringomyelia,50898
fiberoptic,50898
diffusion MRI,50898
Lyophilization,50898
dissipative structure,50898
satisficing,50898
diagonal matrix,50898
Air rights,50898
Camptothecin,50898
Rogaland,50898
Hearing impairment,50898
dopaminergic pathway,50898
isoxazolidine,50898
benztropine,50898
Endometrial cancer,50898
psychedelics,50898
Textures,50898
wrong idea,50898
Homarus,50898
chromosome nomenclature,50898
Menko,50898
Good Manufacturing Practice (GMP),50898
puromycin,50898
trans-anethole,50898
Pribram,50898
hindcasting,50898
F65,50898
Blackwall,50898
tremolite,50898
positive-real,50898
graafian follicles,50898
technologic,50898
pillarized,50898
Cordotomy,50898
Melittin,50898
riboprobe,50898
nickel acetate,50898
M-type,50898
statism,50898
vital blue,50898
thio-,50898
MedLine,50898
Poisson statistics,50898
hindgut,50898
S-nitrosothiols,50898
Fermi momentum,50898
Pennisetum,50898
pangenesis,50898
Lamb shift,50898
Hemophilia,50898
striosome,50898
chelating agent,50898
Coronary bypass surgery,50898
chi-squared distribution,50898
evolutionary epistemology,50898
osmometry,50898
proportional chambers,50898
Wishful Thinking,50898
glycerol-3-phosphate dehydrogenase,50898
phase equilibria,50898
demodulation,50898
Post traumatic stress disorder,50898
positive displacement,50898
Kaplan-Meier estimator,50898
first-class citizen,50898
reaction formation,50898
noncrossing,50898
tosylmethyl isocyanide,50898
triosephosphate isomerase,50898
nurse educator,50898
Middle Ages,50898
dimethyl disulfide,50898
potentiometric titration,50898
Vaginal bleeding,50898
Mauna Loa,50898
k-distribution,50898
Franz Joseph,50898
case control studies,50898
Samoa,50898
charge transfer band,50898
U-Pb dating,50898
Robertsonian translocation,50898
mass analyzer,50898
millimeter wave,50898
hapten,50898
space techniques,50898
Coronary angiography,50898
extirpation,50898
CCD sensor,50898
Be-2,50898
thallium,50898
deoxycorticosterone acetate,50898
Phenol,50898
pulmonary hemorrhage,50898
Linyphiidae,50898
wail,50898
remote sensing techniques,50898
thermal neutrons,50898
Selenastrum,50898
Propantheline,50898
single-input single-output,50898
shoshonite,50898
anti-Flag,50898
electrosensitivity,50898
encapsidation,50898
CA-125,50898
deep percolation,50898
chromosome banding,50898
Dyn,50898
lateral meniscus,50898
NBCI,50898
Bhutanese refugee,50898
digital electronics,50898
graphic design,50898
complete review,50898
FABA,50898
particle-induced x-ray emission,50898
blue shift,50898
3-deoxyglucosone,50898
Proline,50898
poor activity,50898
Abortion,50898
Venhorst,50898
Copepoda,50898
confining pressure,50898
FSE,50898
Laminin,50898
snoring,50898
barium chloride,50898
iodophenpropit,50898
hushing,50898
gamma radiation,50898
electrolarynx,50898
electric current density,50898
direct examination,50898
microgram,50898
SrCl2,50898
KATO,50898
occipital scalp,50898
Chichilnisky,50898
cathepsin D,50898
surface normal,50898
emetine,50898
chlorapatite,50898
exoskeleton,50898
Ritodrine,50898
CEPH,50898
phase-locked loop,50898
hexamethylphosphoramide,50898
paralogue,50898
Continuum Hypothesis,50898
CPO,50898
Subcutaneous fat,50898
C-group,50898
fat-tailed distribution,50898
data generating process,50898
Lindemann,50898
appendicectomy,50898
mens rea,50898
optical shutter,50898
varzea,50898
Nitrosation,50898
negative polarity,50898
Walrasian equilibrium,50898
secant,50898
sporulating,50898
Fasting plasma glucose,50898
palatoplasty,50898
Stockholm,50898
Locusta,50898
mutation theory,50898
dexfenfluramine,50898
thermally populated,50898
REMBRANDT,50898
wild tomato,50898
bacterial capsule,50898
oilseed rape,50898
solar wind,50898
crus penis,50898
physical dependence,50898
Zoetermeer,50898
E24,50898
tiemannite,50898
temperature extreme,50898
Hypnosis,50898
Panicum,50898
magnetic induction,50898
lexicographic preferences,50898
longwave,50898
masseteric nerve,50898
Tramadol,50898
morula,50898
Cylindroiulus,50898
environmental technology,50898
colotomy,50898
Arenaria interpres,50898
cystadenocarcinoma,50898
phytophagous,50898
Early Devonian,50898
Chaos 2,50898
metamodels,50898
optimal control theory,50898
MUC-1,50898
glycosyl donor,50898
Bacteraemia,50898
Discriminant function analysis,50898
obstructive airway disease,50898
Extrusion,50898
NIWA,50898
radiotoxicity,50898
sexually dimorphic nucleus,50898
magnetic quantum number,50898
Norland,50898
sulfenyl,50898
allargentum,50898
pollen diagram,50898
supercoiling,50898
Compton,50898
Wave packet,50898
heat-shock response,50898
Indocyanine green,50898
topical anesthesia,50898
ene reaction,50898
vasoactivity,50898
cassia,50898
self-excitation,50898
human parasites,50898
A-7,50898
Lower Oligocene,50898
GCIP,50898
Splenectomy,50898
abaxial,50898
epicondylitis,50898
sodium ascorbate,50898
pi bond,50898
hemoptysis,50898
Serono,50898
critical frequency,50898
gummosis,50898
BTEX,50898
panic attack,50898
focal neurological deficit,50898
American class structure,50898
stochastic calculus,50898
Eemian interglacial,50898
methylmalonyl-CoA mutase,50898
irreversible antagonist,50898
nucleotidase,50898
Conventional treatment,50898
Torulopsis,50898
insulator,50898
megakaryocyte,50898
Marsdiep,50898
benzylamine,50898
x-ray structure,50898
cefamandole,50898
uf,50898
multiple isomorphous replacement,50898
transnationality,50898
E21,50898
SNi reaction,50898
special function,50898
glucosylceramides,50898
CLOGP,50898
paracompact,50898
ESX-3,50898
protein sequencing,50898
frequency measurement,50898
nodular sclerosis,50898
ribonuclease T1,50898
Guipuzcoa,50898
composite film,50898
saponin,50898
butyronitrile,50898
toxic megacolon,50898
MPICH,50898
Cross-reactivity,50898
Bond angle,50898
Beaufort Sea,50898
Poisson Process,50898
checkmate,50898
deoxycholate,50898
reticular formation,50898
farnesol,50898
britannicus,50898
nile,50898
primary afferent,50898
Diterpenes,50898
tissue hydration,50898
urban air,50898
Fontainebleau,50898
guanidinium thiocyanate,50898
anthranilate,50898
periodic fever syndrome,50898
Rarotonga,50898
North Atlantic breakup,50898
Lochkovian,50898
Standard deviation,50898
Mechanical equilibrium,50898
phlebography,50898
morpholino,50898
glycolate,50898
Stephenson,50898
Synechococcus,50898
reductive dehalogenation,50898
Perimylopidae,50898
stratum lacunosum-moleculare,50898
primary structures,50898
Paracetamol,50898
trihalomethanes,50898
ultrashort laser pulses,50898
iC3b,50898
hypnotherapeutic procedures,50898
divided visual field paradigm,50898
Thera,50898
Vascularized,50898
Zoladex,50898
Angiotensin-converting enzyme,50898
pancreatic disease,50898
Schmidtia,50898
videosignal,50898
palpable purpura,50898
environmental degradation,50898
pubic symphysis,50898
inosine monophosphate,50898
genu recurvatum,50898
Likelihood ratio,50898
quasiperiodic motion,50898
Membrane technology,50898
acamprosate,50898
European call option,50898
pADEs,50898
topological ordering,50898
Crystalline silicon,50898
Psychoneuroendocrinology,50898
Misophonia,50898
moral experience,50898
Sam,50898
D-brane,50898
Conflict management,50898
cryogen,50898
Rosuvastatin,50898
monocotyledonous,50898
3-SAT,50898
Imagine,50898
NSD1,50898
policy debate,50898
European Employment Strategy,50898
The Tarantula,50898
noncommutative,50898
Natural language,50898
Eisenstein,50898
accelerated idioventricular rhythm,50898
Embryology,50898
Twin-twin transfusion syndrome,50898
galaxy cluster,50898
STAT4,50898
Analects,50898
Nonsteroidal anti-inflammatory drugs (NSAIDs),50898
transliteration,50898
category O,50898
intergenerational equity,50898
regional anesthesia,50898
Hydrops fetalis,50898
open-heart surgery,50898
Ponto-Caspian,50898
Actigraphy,50898
fixpoint,50898
vestibular evoked myogenic potential,50898
L1b,50898
Autotaxin,50898
desmoid tumor,50898
Retrovirology,50898
Foucaultian,50898
accelerator mass spectrometer,50898
Max Weber,50898
martensitic transformation,50898
Georgii Plekhanov,50898
Xiphophorus,50898
NGC 5548,50898
salt metathesis reaction,50898
public service broadcasting,50898
wrist arthroscopy,50898
implantable cardioverter-defibrillators,50898
Functional movement,50898
Malone antegrade continence enema,50898
PEX12,50898
methyl ethyl ketone,50898
kaolinite,50898
language intensity,45087
analytical chemistry,50898
Rhizopus arrhizus,50898
Transfusion-related acute lung injury,50898
transurethral microwave thermotherapy,50898
Emotional dissonance,50898
common gamma chain,50898
NM23,50898
heterochromatin protein 1,50898
land reclamation,50898
Molecular phylogeny,50898
armed response,50898
Inland Valley,50898
radio galaxy,50898
Neurodegeneration,50898
Google Earth,50898
social discount rate,50898
rotary motor,50898
Infertility,50898
fireworks,50898
Null hypothesis,50898
functional genomics,50898
Westerlund 2,50898
European Communities,50898
Shakespeare,50898
Paraoxonase,50898
Yanacocha,50898
test equating,50898
financial asset,50898
Home-Start,50898
economic globalization,50898
Nordic Optical Telescope,50898
racemase,50898
Heiligerlee,50898
accelerated solvent extraction,50898
gastric outlet obstruction,50898
Zenobia,50898
stereotype activation,50898
agency detection,50898
Paul Oskar Kristeller,50898
Bijlmermeer,50898
Haldane phase,50898
asymptotic giant branch,50898
Endoscopic mucosal resection,50898
brand management,45131
Alice,50898
hydrocracking,50898
speech disorder,50898
Guangzhou,50898
Isovaleric acidemia,50898
hybrid logic,50898
Econometrics,50898
fuzzball,50898
Neoadjuvant therapy,50898
mitochondrial trifunctional protein,50898
Cardiomyopathy,50898
Alcoholism,50898
Soil organisms,50898
G2 phase,50898
Notch signaling,50898
Voss,50898
nonribosomal peptide,50898
star wind,50898
uridylate,50898
Vernalization,50898
yens,45152
Avelin,50898
Urethral,50898
International Financial Reporting Standards,50898
Boolardy,50898
Prospect theory,50898
Hadamard matrices,50898
Bariatric surgery,50898
protoplanetary nebula,50898
Leydesdorff,50898
free speech,50898
Mevalonic aciduria,50898
Primary hyperoxaluria,50898
Cultural studies,50898
MOF-5,50898
protoplanetary nebulae,50898
initial public offerings (IPOs),50898
EOQ,50898
Grothendieck,50898
Goodreads,50898
HIV envelope,50898
behavioural targeting,50898
Memory T cells,50898
International Social Survey Programme,50898
Gastric outlet obstruction,50898
Freshwater ecosystems,50898
conformal space,50898
active galactic nuclei (AGN),50898
ubiquitin-conjugating enzyme,50898
organizational climate,50898
Hyperekplexia,50898
Hormone replacement therapy,50898
Prestwick,50898
Venous thrombosis,50898
dwarf spheroidal galaxy,50898
intelligent transportation system,50898
economic inequality,50898
land planarian,50898
American Airlines,45190
montmorillonite,50898
medical test,50898
REC,50898
Hepatitis C virus,50898
Stanley Cavell,50898
amorphous silicon,50898
biological pest control,50898
Eta Carinae,50898
1RXS,50898
outdoor advertising,45200
Natural resource management,50898
Caveolae,50898
General anesthesia,50898
body integrity identity disorder,50898
Asteroseismology,50898
Low Mass,50898
decommodification,50898
Laminar flow,50898
David Lynch,50898
Pseudallescheria boydii,50898
open government,50898
pyrazoline,50898
neuroeconomics,50898
lifelong learning,50898
haemochromatosis,50898
relativist,50898
GEFT,50898
MF1,50898
Multicolor,50898
Highly active antiretroviral therapy,50898
gigantomastia,50898
aurora,50898
constitutive equation,50898
Organ donation,50898
multifocal motor neuropathy,50898
Colin Powell,50898
sunk cost,50898
Chronic rhinosinusitis,50898
graphical model,50898
IRS2,50898
Eisler,50898
Choledocholithiasis,50898
Justified,50898
Villanova University,50898
D-bifunctional protein deficiency,50898
resource curse,50898
social reproduction,50898
insecticide resistance,50898
Micronutrient,50898
Third Worldism,50898
radio astronomy,50898
agency theory,50898
illusory correlation,50898
anti-thymocyte globulin,50898
CiVi,50898
Catholicism,50898
certolizumab pegol,50898
social inequality,50898
Peroxisome,50898
The graphic,50898
PLAT,50898
World Development Report,50898
Shewhart,50898
complex media,50898
Deep vein thrombosis (DVT),50898
3-hydroxyisobutyrate dehydrogenase,50898
tort,50898
Cultural policy,50898
Renal Cell Carcinoma,50898
geopolitics,50898
Acute respiratory distress syndrome (ARDS),50898
Kiwifruit,50898
SAX,50898
feminist epistemology,50898
Icarus,50898
Pontocerebellar hypoplasia,50898
red algal,50898
Greig cephalopolysyndactyly,50898
Koornwinder polynomials,50898
Chronic lymphocytic leukaemia,50898
microchannels,50898
documenta,50898
slapstick,45273
colporrhaphy,50898
Barth Syndrome,50898
incomplete contracts,50898
American Behavioral Scientist,50898
Workplace violence,50898
editio princeps,50898
quasilinear,50898
pentaerythritol tetranitrate,50898
MOST,50898
Tryton,50898
Debris disks,50898
intra-generational,50898
spin crossover,50898
poly(vinylidene fluoride),50898
Polarimetric,50898
cetologists,50898
Acetaminophen,50898
Pathogenic bacteria,50898
SD 127,50898
Genous,50898
Levy Process,50898
Fagales,50898
Cosmic rays,50898
Bogen,50898
sign function,50898
convolution theorem,50898
Heterochromatin,50898
P wave,50898
Torcetrapib,50898
field bean,50898
venturing,50898
chromosome segregation,50898
Superconvergence,50898
Maximum likelihood estimation,50898
public diplomacy,50898
secure identification,50898
competition systems,50898
Dirichlet series,50898
canopy interception,50898
b-tagging,50898
keratan,50898
dynamic causal modelling,50898
pseudodifferential operators,50898
Campylobacter lari,50898
empathy gap,50898
transit-oriented development,50898
Cayman Islands,50898
mu*,50898
elevated railway,50898
Faafu atoll,50898
Hyperammonemia,50898
Acetyl-CoA carboxylase,50898
radio spectrum,50898
stimulus onset asynchrony,50898
traffic equations,50898
TAWs,50898
quantum algorithm,50898
Pilocytic astrocytoma,50898
Scorpius-Centaurus,50898
trope,50898
cash flow,50898
dynamic time warping (DTW),50898
Medical prescription,50898
hallucinogenic mushrooms,50898
trigonometric,50898
Chaetothyriales,50898
6-step,50898
Attention deficit/hyperactivity disorder,50898
Subaru,50898
Lygodactylus,50898
Dahlgren,50898
T-type Ca2+ channel,50898
Diffusion-weighted imaging,50898
zylon,50898
Southern culture,50898
Joshua Oppenheimer,50898
zipper,50898
adult attention deficit hyperactivity disorder,50898
GRB 970508,50898
food allergens,50898
Singleton,50898
periampullary,50898
Graphene,50898
human resource accounting,50898
Peroxisome proliferator-activated receptor gamma,50898
Acetylene,50898
Infrared multiphoton dissociation,50898
unit disk,50898
Parent management training,50898
maximum intensity projection,50898
Anticholinergics,50898
Baron-Cohen,50898
activity-based learning,50898
density matrix renormalization group,50898
Hagiographic,50898
A&E,50898
spontaneous hypoglycemia,50898
vital sign,50898
succinct data structure,50898
Pseudorapidity,50898
microhylid,50898
interventional radiology,50898
high intensity focused ultrasound,50898
Methacrylate,50898
Endocrine disorders,50898
R programming language,50898
Habitat loss,50898
Dynkin diagram,50898
Lysogeny,50898
Poisson noise,50898
The Voice,50898
Yellow Fever,50898
Spinal muscular atrophy,50898
low-power,50898
Frederick Ruysch,50898
Growth retardation,50898
strictly speaking,50898
stock indices,50898
price mechanism,50898
Bibliometrics,50898
Fe III,50898
randomized experiment,50898
formal system,50898
Photospheric,50898
ulnar styloid process,50898
active pharmaceutical ingredient (API),50898
chronic inflammatory demyelinating polyneuropathy,50898
Histone deacetylase,50898
computational science,50898
population ecology,50898
Working time,50898
Renal disease,50898
type-ahead,50898
Polo-like kinase,50898
quasinormal,50898
permanent revolution,50898
neutral currents,50898
automatic parallelization,50898
Gray platelet syndrome,50898
ASPM,50898
nutraceutical,50898
Monochorionic twins,50898
Interleukin 17A,50898
bookmaker,50898
fluorene,50898
Rijksmuseum,50898
knowledge translation,50898
Advanced CCD Imaging Spectrometer,50898
IL-18 binding protein,50898
Millisecond,50898
Tonsillectomy,50898
kinetoplastid,50898
cyclic model,50898
Urothelium,50898
Castile,45428
Deiodinase,50898
traumatic grief,50898
diffeomorphism invariance,50898
platelet membrane glycoprotein,50898
Prabhu,50898
internal market,50898
coherent radiation,50898
Monarch butterflies,45436
International Accounting Standards Board (IASB),50898
Janzen-Connell hypothesis,50898
microalga,50898
Cornelia de Lange Syndrome,50898
tamsulosin,50898
political parallelism,50898
set difference,50898
dermatological lesions,50898
Nociception,50898
combinatorial auction,50898
hemochromatosis,50898
Attini,50898
pimping,50898
regional planning,50898
Bawean,50898
Daptomycin,50898
replication protein A,50898
Congenital heart disease,50898
Pollen analysis,50898
CHCH,50898
twin-twin transfusion syndrome,50898
suburbanisation,50898
common stock,50898
perihelion,50898
processing fluency,50898
Entecavir,50898
Waterloo,50898
implicit association test,50898
quantum computer,50898
Visceral fat,50898
spiral arm,50898
chiral Potts model,50898
Markov additive process,50898
Endothelial activation,50898
Light-emitting diodes,50898
domain-specific learning,50898
corporate social responsibility,50898
Fundamental Plane,50898
medicalization,50898
othering,50898
Catecholaminergic polymorphic ventricular tachycardia,50898
Fear conditioning,50898
Dupuytren,50898
Leucocyte,50898
Directed evolution,50898
philosophical perspectives,50898
human immunodeficiency virus 1,50898
preimplantation genetic screening,50898
Extracorporeal membrane oxygenation,50898
contemporary concepts,50898
Interest point detection,50898
EU-SILC,50898
Melioidosis,50898
Jorge Luis Borges,50898
Electrical resistivity,50898
Chronic renal failure,50898
Paramount,45493
Orthohepadnavirus,50898
Bakhuys,50898
Cerebral venous thrombosis,50898
Neoscytalidium dimidiatum,50898
attention deficit disorder,50898
palimpsest,50898
semi-structured data,50898
social identity approach,50898
Acyl-CoA,50898
venture capital,50898
cardiac pacemakers,50898
body awareness,50898
Sawai,50898
POs,50898
Cherednik,50898
Adhesion G protein-coupled receptors,50898
deoxyadenosine,50898
neuraminidase inhibitor,50898
Jamie Oliver,50898
HR 8799,50898
Gilberto Gil,50898
chronic rhinosinusitis,50898
cataclysmic binary,50898
surface chemistry,50898
esophageal diseases,50898
Filamin A,50898
congestion control,50898
Hyperphenylalaninemia,50898
homozygous familial hypercholesterolemia,50898
anterior cruciate ligament reconstruction,50898
deep brain stimulators,50898
wireless network,50898
2006 Dutch elections,50898
labor pain,50898
precommitment,50898
Primary ovarian insufficiency,50898
q-analogue,50898
water activity,50898
silicone oil,50898
Platelet-rich plasma,50898
cryptography,50898
mycetoma,50898
Mach number,50898
copyright formalities,50898
design space exploration,50898
Tuberous sclerosis,50898
2112,50898
lipomatosis,50898
Bod,45542
Colubrid,50898
TRPV4,50898
pediatric gastroenterology,50898
Glycogen storage disease,50898
Bayesian Information Criterion,50898
toy model,50898
European sovereign debt crisis,50898
hexa,50898
architectural acoustics,50898
Peutz,50898
Alachlor,50898
relativistic jet,50898
angle-resolved photoemission spectroscopy,50898
queuing theory,50898
chromoblastomycosis,50898
Supramolecular chemistry,50898
Syphilis,50898
Odin,50898
lesogaberan,50898
Arthrospira,50898
Human coronavirus NL63,50898
torsion dystonia,50898
Bereitschaftspotential,50898
Mediastinum,50898
credit default swaps,50898
dacryocystorhinostomy,50898
serpulid,50898
SBU,50898
elementary particle,50898
Ret receptor,50898
Italian identity,50898
cultural pluralism,50898
Traveling Purchaser Problem,50898
Mantoux tuberculin skin test,50898
Adeno-associated virus,50898
Fulfulde,50898
Gynecomastia,50898
Thermodynamics,50898
Eastern Himalayas,50898
edge detection,50898
antimitotic,50898
East Central Europe,50898
Vincent van Gogh,50898
tuberosity,50898
2009 pandemic,50898
Mortality salience,50898
DMOZ,50898
pbq,50898
5T,50898
Transition probabilities,50898
affix,50898
monotremes,50898
Pre-exposure prophylaxis,50898
anomaly detection,50898
Atypical antipsychotic,50898
Data-Oriented Parsing,50898
hepatitis A virus,50898
intracluster medium,50898
Reflex sympathetic dystrophy,50898
rectal examination,50898
mode share,50898
emission intensity,50898
Fondaparinux,50898
glycogen phosphorylase,50898
conditional probability,50898
Britton Chance,50898
liver cancer,50898
erythematous,50898
full employment,50898
Rhinitis,50898
thymopoiesis,50898
Fornax,50898
cauterize,50898
Great Argus,50898
coronectomy,50898
Schroeder,50898
OAM,50898
statelessness,50898
Orion,50898
Universal health care,50898
alkaline agents,50898
Metal-organic frameworks,50898
exhibition center,50898
Autistic Spectrum Disorder,50898
X-ray computed tomography,50898
Cone dystrophy,50898
ascomycetes,50898
Myopia,50898
dysthyroid optic neuropathy,50898
Indinavir,50898
Dynamic energy budget,50898
optical flash,50898
sketchers,45635
Hyperoxia,50898
computer literacy,50898
generalized processor sharing,50898
Anglophone,50898
peripheral blood stem cells,50898
Mipomersen,50898
motor disability,50898
Information theory,50898
RNA-directed DNA methylation,50898
clinical immunology,50898
Harish-Chandra,50898
Dissipative particle dynamics,50898
Achalasia,50898
polymyositis,50898
cellulitis,50898
Auroux,50898
chorionic villus sampling,50898
The infection,50898
sickle-cell disease,50898
alpha-blockers,50898
Cytotoxic T lymphocyte,50898
International Visual Sociology Association,50898
anchor text,50898
CD79,50898
Cell adhesion molecules,50898
Titanium,50898
Virtual reality,50898
trawl,50898
Thessaloniki,50898
helium star,50898
Somatostatin,50898
package delivery,50898
Clinical monitoring,50898
visa,50898
CHD7,50898
partition theory,50898
Osteosarcoma,50898
FASD,50898
The anatomy lesson,50898
crystal structure prediction,50898
Eumycetoma,50898
pyrrolizidine,50898
Tidore,50898
Configuration interaction,50898
magnesium transporter,50898
G17,50898
quiver,50898
Semi-empirical,50898
Mucinous,50898
haemagglutinin,50898
EU energy policy,50898
Erythromycin,50898
attention management,50898
Hecke algebra,50898
hawala,50898
Rhinovirus,50898
x-ray absorption spectroscopy,50898
Palk Bay,50898
teratological,50898
self-neglect,50898
Lamin B receptor,50898
Natal,50898
Apixaban,50898
Anton Pannekoek,50898
Dronedarone,50898
dynamic epistemic logic,50898
QCD matter,50898
Cytochrome P450 1A2,50898
Biomaterial,50898
tumescent anesthesia,47666
dimethylsulfoniopropionate,50898
orthographic knowledge,50898
"3,3'-Diaminobenzidine",50898
acute decompensated heart failure,50898
Riemann surface,50898
secukinumab,50898
traffic signal,50898
Lomitapide,50898
algebraically closed field,50898
Dissociative disorders,50898
morphophonology,50898
A 70,50898
Jung,50898
natural area,50898
Transmetallation,50898
Sexual abuse,50898
Pathological gambling,50898
abductive reasoning,50898
BLK,50898
out-of-order instruction execution,50898
birational,50898
technological determinism,50898
extrasolar planet,50898
Ultrafiltration,50898
immunosenescence,50898
Natuna,50898
idiosyncratic risk,50898
Long-term memory,50898
The edge,50898
Outer sphere electron transfer,50898
algebraic theory,50898
inguinal lymph node,50898
Leukocyte adhesion deficiency,50898
topological field theories,50898
postnominal,50898
Arthroscopy,50898
Netherlands Forensic Institute,50898
IsO,50898
ritual slaughter,50898
UTT,50898
flavor changing neutral current,50898
organizational communication,50898
face detection,50898
Tibial plateau fracture,50898
T-matrix method,50898
Heterodyne,50898
nca,50898
partial function,50898
R language,50898
oil recovery,50898
Zylon,50898
Digital Rights Ireland,50898
Weibull distribution,50898
Diagnostic testing,50898
Sponge,50898
Political opportunity,50898
Hammond,50898
collation,50898
Dissolved organic matter,50898
spondylarthritis,50898
anencephalic,50898
Stockwell,50898
Pyrenochaeta,50898
Piaget,50898
Rab,50898
Hepatitis B,50898
Glucosuria,50898
desmids,50898
Ornstein-Uhlenbeck Process,50898
integrity constraints,50898
quasi-isomorphism,50898
Fungi,50898
Holmberg IX,50898
Informal Caregivers,50898
progressive muscular atrophy,50898
NIPBL,50898
quantum KZ equations,50898
Cuban revolution,50898
mossy fiber,50898
dimethyl oxalate,50898
coadaptation,50898
distal radioulnar joint,50898
SHOC2,50898
CONICA,50898
Parsimony analysis,50898
fusariosis,50898
MPZ,50898
suborbital,50898
coercive field,50898
Danks,50898
postganglionic nerve fibers,50898
cyanophages,50898
placentals,50898
Retinal degeneration,50898
Lolium multiflorum,50898
jet quenching,50898
pseudoaneurysm,50898
loyalty program,50898
echelle,50898
socially distributed cognition,50898
fugacities,50898
urogenital diaphragm,50898
Knockout mice,50898
weak D,50898
mipomersen,50898
Scedosporium,50898
gold(I) chloride,50898
taxonomic assignment,50898
periastron,50898
ornithine decarboxylase,50898
Listeria monocytogenes,50898
duroquinone,50898
ORT,50898
simple set,50898
early modern period,50898
European law,50898
turf algae,50898
Ortega hypothesis,50898
SWE,50898
darifenacin,50898
NTRK2,50898
distal myopathies,50898
consumerist,50898
Afar,50898
SVT,50898
Idraparinux,50898
pirlindole,50898
B68,50898
SALL1,50898
rational curve,50898
maritime boundary,50898
Cy5.5,50898
tannase,50898
Chern-Simons theory,50898
Petzold,50898
piperacillin-tazobactam,50898
Anglosphere,50898
shikimate,50898
path dependence,50898
Insulin aspart,50898
chain termination,50898
rucaparib,50898
cultural evolution,50898
Phialophora,50898
algebraically independent,50898
pontine nuclei,50898
negative staining,50898
microstate,50898
labor law,50898
bupivacaine,50898
auditory scene analysis,50898
Wound infection,50898
NDUFAF1,50898
stream density,50898
Togo,50898
gravimetric analysis,50898
RYR1,50898
dimension reduction,50898
bcl,50898
rosuvastatin,50898
P600,50898
dabco,50898
QSM,50898
STXBP2,50898
sperm precedence,50898
black-body,50898
pachytene,50898
Sos2,50898
semi-amplitude,50898
DNIS,50898
brown dwarf,50898
Wt1,50898
FFT,50898
French philosophy,50898
long-slit spectroscopy,50898
Noel,50898
base metal,50898
agalsidase beta,50898
agostic interaction,50898
atom transfer radical polymerization,50898
Indian Hedgehog,50898
plaque reduction neutralization test,50898
VBL,50898
Branched-chain amino acid,50898
syntrophy,50898
serpulids,50898
shear thinning,50898
Cross-cultural comparison,50898
IFIP,50898
IL17A,50898
moral panic,50898
esophageal varices,50898
monoamniotic,50898
VLCAD deficiency,50898
glucosylceramidase,50898
amplitude modulated,50898
GUSTO,50898
moderator variable,50898
synonymous mutations,50898
sustainable fisheries,50898
21 seconds,50898
S matrix,50898
HDI,50898
CIDP,50898
Haren,50898
glucosuria,50898
vaginal candidiasis,50898
NGC 4395,50898
Wilms' tumour,50898
thienopyridine,50898
pyuria,50898
Nightmare,50898
Chronic Respiratory Disease,50898
rate determining step,50898
phlebotomies,50898
posterior chamber,50898
anococcygeal,50898
M22,50898
chiralities,50898
knowledge broker,50898
Orthoptera,50898
NGC 6811,50898
TBL,50898
postinflammatory hyperpigmentation,50898
flavins,50898
Racah coefficients,50898
ARIs,50898
septate,50898
Gastrografin,50898
P. malariae,50898
bedtimes,50898
Plekhanov,50898
atomic absorption,50898
John Stuart Mill,50898
multiobjective optimization,50898
inalienable possession,50898
MEDUSA,50898
HCN2,50898
Kadi,50898
VANET,50898
digital rectal examination,50898
Lichtheimia corymbifera,50898
pili,50898
absolute Galois group,50898
bacterial overgrowth,50898
PAR-CLIP,50898
aliasing,50898
thoracentesis,50898
rotational velocity,50898
saturation pressure,50898
chargino,50898
AMC-8,50898
carrot,50898
analogical reasoning,50898
LEM.,50898
25-hydroxy vitamin D,50898
indicator groups,50898
Lagos,50898
avoidance coping,50898
regional language,50898
germ layers,50898
secondary building units,50898
bursting pressure,50898
cooling load,50898
posthumanism,50898
dayside,50898
nasal polyposis,50898
real time clock,50898
perilipin,50898
nematophagous fungus,50898
Delichon urbicum,50898
nominal interest rate,50898
Gaviscon,50898
MCVE,50898
subjective refraction,50898
group action,50898
superbase,50898
primaquine,50898
DSE,50898
Boloria polaris,50898
altmetrics,50898
BTLA,50898
Saul,50898
sphygmomanometer,50898
IFI16,50898
doxazosin,50898
diffusion weighted imaging,50898
Local Group,50898
LHL,50898
dihydroartemisinin,50898
PLK1,50898
dextromoramide,50898
thixotropy,50898
Andersen thermostat,50898
NICMOS,50898
RNAI,50898
neurostimulation,50898
compulsive gambling,50898
locally decodable,50898
sesquiterpenoid,50898
COMSOL Multiphysics,50898
Fukaya category,50898
nucleophilic displacement,50898
Tripadvisor,50898
motivator,50898
ret,50898
double aspect,50898
general transcription factor,50898
nitrogen base,50898
standard regions,50898
gamma hydroxybutyrate,50898
gastrinoma,50898
fixpoint logic,50898
Further efforts,50898
amegakaryocytic thrombocytopenia,50898
InGaP,50898
DHS.,50898
mPTP,50898
position error,50898
factitial dermatitis,50898
IP group,50898
Nipah virus,50898
LEV,50898
HCN4,50898
phosphide,50898
zif,50898
thermal bath,50898
Abraham Bloemaert,50898
domain wall,50898
adhesin,50898
carvedilol,50898
mastoiditis,50898
Micrococcus luteus,50898
primitive cell,50898
bourgeois,50898
Macedonia,50898
gadobutrol,50898
intestinal lumen,50898
item discrimination,50898
PARE,50898
conifer,50898
friction factor,50898
carnations,50898
NGC 6530,50898
circumstellar environment,50898
Dsg2,50898
sulfur metabolism,50898
2-ethoxyethanol,50898
Systemic vascular resistance,50898
hyperthyroxinemia,50898
bone conduction,50898
complement proteins,50898
hysterectomies,50898
legacy effects,50898
Laryngoscope,50898
latex agglutination test,50898
Oxygen saturation,50898
molecular filter,50898
ELOS,50898
CAVB,50898
SHIWA,50898
Lazear,50898
voir,50898
East Malaysia,50898
cryo-EM,50898
Wilcock,50898
lymphoproliferative disorder,50898
pallor,50898
V-L,50898
Trematosphaeria,50898
functional residual capacity,50898
pleural cavity,50898
alpha-haemolytic,50898
CUSUM,50898
dactylus,50898
photovoice,50898
SMPs,50898
tanycytes,50898
lecithin-cholesterol acyltransferase,50898
ARVC,50898
propoxur,50898
immuno-modulating,50898
pereopod,50898
pinnae,50898
Biosis Previews,50898
alienable possession,50898
ICU scoring systems,50898
POD 2,50898
ARAF,50898
integral field spectrograph,50898
crab,50898
Joule,50898
deconfinement,50898
small angle X-ray scattering,50898
aminomethylbenzoic acid,50898
FEL,50898
Frederik,50898
"2,5-hexanedione",50898
Thyroxine,50898
LTM,50898
workplace violence,50898
interleukin-7,50898
corticotropes,50898
uterine leiomyoma,50898
Protein Phosphatase 2A,50898
ACQ,50898
ATN,50898
Bolano,50898
holons,50898
multiple acyl-CoA dehydrogenase deficiency,50898
human experiments,50898
Byrsonima,50898
methoxamine,50898
ASKAP,50898
muscarinic agonist,50898
cystoid macular edema,50898
structure formation,50898
Rembrandt van Rijn,50898
protomer,50898
DIAS,50898
translational invariance,50898
dextrans,50898
CVT,50898
Javan Hawk-eagle,50898
slope stability,50898
palpitations,50898
single-chain variable fragment,50898
Chinese cultural revolution,50898
annexin A2,50898
protein misfolding,50898
Spheroid,50898
picrate,50898
C5H6,50898
intensivist,50898
malignant ascites,50898
biophysics,50898
user interface design,50898
NIHF,50898
communist party,50898
early access,50898
limpet,50898
optical mapping,50898
Columba,50898
placenta praevia,50898
GBA2,50898
Philips Medical Systems,50898
tgc,50898
Sordariales,50898
Sudden Infant Death Syndrome,50898
cell-free fetal DNA,50898
zeste,50898
Tgr5,50898
rheoscope,50898
Cognitive behavior therapy,50898
event generator,50898
ceramic membrane,50898
late Glacial,50898
ACADEMIC EMERGENCY MEDICINE,50898
renormalization group flow,50898
T-Tauri,50898
PiS,50898
final draft,50898
visual sociology,50898
Keyser,50898
anatomical snuffbox,50898
Herbig Ae/Be,50898
bronchial lavage,50898
P. ovale,50898
nightside,50898
ethno-botanical,50898
symbiotic star,50898
alpha-gal,50898
SpO2,50898
testing times,50898
CPT2,50898
Discretization,50898
post-contrast,50898
The NICE,50898
Carina,50898
Nuc,50898
torcetrapib,50898
Japanese encephalitis virus,50898
D3-brane,50898
hemimegalencephaly,50898
akathisia,50898
caudate lobe,50898
AMS-02,50898
SEGAs,50898
data retention,50898
S100A8,50898
microtechnology,50898
thenar eminence,50898
integument,50898
lysogenic,50898
malathion,50898
Chromobacterium violaceum,50898
urapidil,50898
optical theorem,50898
SIX1,50898
AUF,50898
clioquinol,50898
hyposplenia,50898
vapor liquid equilibrium,50898
antithyroid drugs,50898
Hoogstraten,50898
biopolitical,50898
USL,50898
register file,50898
Mosaddeq,50898
abdominal ultrasonography,50898
BSTFA,50898
pre-industrial societies,50898
metallicities,50898
T. evansi,50898
Oxidative phosphorylation,50898
CK8,50898
Bernard Lyot,50898
Zea Mays,50898
Dubawnt Lake,50898
holomorphic discrete series,50898
post-translational regulation,50898
Streptokinase,50898
structural robustness,50898
KCNV2,50898
clobetasol,50898
negative stain,50898
Microascaceae,50898
renal circulation,50898
SFR,50898
IST,50898
diterpenoid,50898
Trinidad,50898
empirical consequences,50898
Inga trees,50898
Sculptor dwarf galaxy,50898
316L,50898
TVS,50898
HH signaling,50898
GDP-fucose transporter,50898
PSPAcE-hard,50898
Saxicola,50898
archaeol,50898
PAUP,50898
phytochemicals,50898
monochorionic twins,50898
writing therapy,50898
NGC 6231,50898
Health communication,50898
Time-lapse microscopy,50898
Astacidea,50898
WMT,50898
panacea,50898
USB,50898
painful intercourse,50898
SIDE model,50898
Callyspongiidae,50898
dissensus,50898
Purkinje,50898
tissue expanders,50898
quadrat,50898
polygodial,50898
colluvial,50898
fricative,50898
sacral plexus,50898
Abel-Jacobi map,50898
dualistic,50898
close-knit,50898
drug policy,50898
JSF,50898
Clostridiales,50898
MeCP2,50898
AUT,50898
Socotra,50898
saccule,50898
word association,50898
Bok globule,50898
SO(2),50898
CD4 cell Count,50898
logical necessity,50898
Omnipaque,50898
Ruby,50898
differential entropy,50898
guanine nucleotide exchange factor,50898
Arctic Blue,50898
cMYC,50898
wet mount,50898
coarse graining,50898
oil paint,50898
reverse-transcriptase inhibitors,50898
Schwarzschild metric,50898
Muscarinic receptors,50898
azauridine,50898
dibucaine,50898
Tuttlingen,50898
geometrid,50898
Serbia,50898
leukocyte trafficking,50898
radiation pressure,50898
Reckitt Benckiser,50898
OPP,50898
monotonically increasing,50898
cubic equation,50898
histosols,50898
square integrable,50898
compression stockings,50898
peptide bond,50898
methemoglobin,50898
TATA-box binding protein,50898
price leadership,50898
micron,50898
mean-motion resonance,50898
RFI,50898
PVI,50898
Kosovar,50898
snoRNP,50898
zygotene,50898
terminal velocity,50898
Human Development Indices,50898
DPI,50898
crypt-villus,50898
o-phthaldialdehyde,50898
STIS,50898
safer sex,50898
macrofauna,50898
Internal market,50898
Kennedy,50898
MAXQDA,50898
fondaparinux,50898
response spectrum,50898
nbeal2,50898
osseointegrate,50898
paxilline,50898
saprobes,50898
Rio Tinto,50898
GINA,50898
postpartum bleeding,50898
Darwin Core,50898
Gier,50898
N. benthamiana,50898
gallbladder cancer,50898
methyl nitrate,50898
pulmonary function test,50898
pegylated interferon-alpha-2b,50898
ReA,50898
Progenitor cell,50898
Mre11,50898
diversification rates,50898
micafungin,50898
cox2,50898
doxy,50898
dronedarone,50898
ferrite,50898
crack cocaine,50898
PAS domain,50898
activation-induced cytidine deaminase,50898
GPHN,50898
chansons de geste,50898
Marxist,50898
CG dinucleotides,50898
Typhlodromalus,50898
sm1,50898
nacnac,50898
sapropterin,50898
pivot-shift test,50898
mGluR5,50898
face diagonal,50898
CFL,50898
Dural,50898
Cerebellum,50898
Mortality rate,50898
life insurance,50898
secondary hypertension,50898
UCSD,50898
hypoventilation,50898
ideogram,50898
Dkk,50898
primordial dwarfism,50898
BEAST,50898
sigmoid function,50898
radioulnar joint,50898
tau neutrino,50898
E3 ubiquitin ligase,50898
human embryogenesis,50898
Mkk4,50898
Hong Kong cinema,50898
anterior horn disease,50898
autolysis,50898
Hermetic,50898
orbiton,50898
ubiquitin C,50898
chemical shift anisotropy,50898
Coronary disease,50898
OAG,50898
Weyl group,50898
Sommerfeld,50898
Slough,50898
reclaimed land,50898
tocilizumab,50898
Repurposing,50898
linear polarisation,50898
systems medicine,50898
lari,50898
decoy cells,50898
blanching,50898
F96,50898
zea,50898
North South,50898
PP2A,50898
helium burning,50898
ionomer,50898
tertium comparationis,50898
spin bundle,50898
Lipoteichoic acid,50898
daptomycin,50898
CASP10,50898
energy recovery,50898
GAD67,50898
raised peat bogs,50898
ETV,50898
DRE,50898
harm reduction,50898
Tissue microarray,50898
nuclear-powered,50898
D8,50898
L12,50898
Forensic Science Society,50898
sigirr,50898
anti-HBc,50898
eosinophilic asthma,50898
topological order,50898
NBN,50898
Wannier,50898
nandrolone,50898
Er-1,50898
Evidence-Based Medicine,50898
Google Maps,50898
Achelata,50898
LAMB1,50898
proletariat,50898
ITQ,50898
BAA,50898
femoral condyle,50898
FAAH,50898
TBX5,50898
Infernal Affairs,50898
photosensitization,50898
breath test,50898
Romantic Era,50898
highest weight,50898
subring,50898
TBX3,50898
TFEU,50898
5-enolpyruvylshikimate-3-phosphate synthase,50898
stellar class,50898
full genome sequencing,50898
Optic nerve,50898
Wilson polynomials,50898
capillary refill,50898
city district,50898
EGP,50898
reindeer,50898
lipid digestion,50898
Red streak,50898
Mauritshuis,50898
true variance,50898
FHL2,50898
Flucytosine,50898
penumbra,50898
head-marking,50898
Moab,50898
Syncephalastrum racemosum,50898
JTC,50898
ethnographic method,50898
adhesins,50898
fenitrothion,50898
MSH4,50898
semi-major axis,50898
KNMT,50898
hyaline,50898
Segal,50898
crepe,50898
sialadenitis,50898
primary peritoneal cancer,50898
domain decomposition,50898
Passive smoking,50898
SLIM,50898
MAGT1,50898
virtual humans,50898
V4641 Sgr,50898
mass segregation,50898
mmp9,50898
Syncope,50898
pyloromyotomy,50898
anidulafungin,50898
coccygeal,50898
TRIP13,50898
ichthyosis,50898
processivity,50898
cosmological singularity,50898
oxalosis,50898
MEG3,50898
production sets,50898
mw,50898
B. afzelii,50898
luminosity function,50898
Aminobacter,50898
KTx,50898
keratometry,50898
elliptical orbit,50898
molybdenum oxide,50898
sex reassignment therapy,50898
grammatical aspect,50898
necromancy,50898
Benzoyl-CoA reductase,50898
aripo,50898
Dutch Golden Age,50898
PKP2,50898
presence/absence data,50898
Syntrophomonadaceae,50898
logits,50898
Ficopomatus enigmaticus,50898
avoidance learning,50898
Lottia gigantea,50898
data structure,50898
Himanka,50898
root resorption,50898
FDB,50898
ClCH2CH2Cl,50898
purinergic receptor,50898
LISA,50898
hearing test,50898
idiopathic generalized epilepsy,50898
Effective stress,50898
FA-2,50898
CAF,50898
Amazon river,50898
pharmacogenetics,50898
Notch3,50898
Pitx3,50898
acute phase reaction,50898
Socialization,50898
Galien,50898
DUPLEX,50898
Germinal,50898
Binimetinib,50898
QCP,50898
Academic Emergency Medicine,50898
comproportionation,50898
corn,50898
m1b,50898
DKC1,50898
Penning trap,50898
Galanthus nivalis,50898
Acrodonta,50898
price analysis,50898
winnowing,50898
HAPS,50898
chain propagation,50898
gynes,50898
TSA,50898
chemoreceptors,50898
tracheal rings,50898
fundus images,50898
AMACR,50898
read-through,50898
molecular cloud,50898
rectopexy,50898
scrambling,50898
condensed matter,50898
UIA,50898
dimer model,50898
astrophysical transients,50898
productivist,50898
Muscle atrophy,50898
Coronary flow reserve,50898
cementite,50898
CH activation,50898
Electroretinogram,50898
tissue biopsy,50898
Czar,50898
S. pyogenes,50898
collybistin,50898
Tanganyika,50898
anagen,50898
Norepinephrine,50898
Propacetamol,50898
ACAD9,50898
game semantics,50898
Model V,50898
IRF1,50898
Regulus ignicapilla,50898
underdetermined,50898
combinatorial chemistry,50898
Nav1.5,50898
ilium,50898
quality-adjusted life year,50898
Nod-like receptor,50898
Rate coefficients,50898
Javan,50898
RAG complex,50898
Z-test,50898
sitosterolemia,50898
ornithine transcarbamoylase,50898
IGR J17091-3624,50898
FJU,50898
pulmonary injury,50898
crystal methamphetamine,50898
Logic Learning Machine,50898
Coprophilous fungi,50898
AKT/PKB,50898
zygomatic arch,50898
NEDD4,50898
Collective Bargaining Agreement,50898
Plebejus glandon,50898
Victoria Island,50898
Lipschitz continuous,50898
polyamide,50898
ODO,50898
computational fluid dynamics,50898
The merger,50898
biodiversity hotspot,50898
hip dislocation,50898
gallery forest,50898
kiwifruit,50898
special point,50898
fayalite,50898
tricritical point,50898
minimal models,50898
microcell,50898
chemical equilibrium,50898
choleretic,50898
HEY2,50898
ova,50898
58 minutes,50898
PEX,50898
1-butene,50898
intravenous lipid emulsion,50898
Subatlantic,50898
NHP2,50898
ELF,50898
Euseius fustis,50898
haemangioma,50898
thermodynamic phase,50898
monotheist,50898
Pap test,50898
overfishing,50898
M1 protein,50898
caveolin,50898
AMC-4,50898
MYD88,50898
FOXP2,50898
VLDLR,50898
IL2RG,50898
E19,50898
phenformin,50898
Postel,50898
Chlorobi,50898
Baltic countries,50898
JNK1,50898
kringle,50898
double dissociation,50898
TARDBP,50898
back-reaction,50898
alpha helical,50898
Palfium,50898
Six family,50898
DCI group,50898
xiphisternum,50898
Amyotrophic Lateral Sclerosis,50898
evergreen forest,50898
N-Methyl-D-aspartate,50898
D-l,50898
THBD,50898
GSC,50898
Atta capiguara,50898
WSCV,50898
Rembrandt,50898
Rameswaram,50898
Gaq,50898
Radical surgery,50898
flowsheet,50898
Oil red O,50898
evolutionary phonology,50898
Generalized linear models,50898
nurse practitioner,50898
active BAT,50898
chi-squared analysis,50898
species evenness,50898
Walker A motif,50898
Pleurodonta,50898
strong inflection,50898
kidney biopsy,50898
SMAD1,50898
debris disk,50898
multiangle light scattering,50898
nuclear spin,50898
Balinese,50898
splenius,50898
acousto-optic modulator,50898
nd1,50898
main stem,50898
Xyris,50898
reelin,50898
Pocillopora,50898
WDR,50898
carotid body,50898
atypical small acinar proliferation,50898
Stockmeyer,50898
UAI,50898
time control,50898
complete list,50898
TVA,50898
PEG3,50898
PVDF,50898
nanofiltration,50898
heavy gauge,50898
SGK1,50898
Formalin,50898
chromosomal anomalies,50898
allylbenzene,50898
Gross Domestic Product,50898
Writing therapy,50898
bisacodyl,50898
TCF4,50898
FGF10,50898
arthrotomy,50898
CL2,50898
integrated magnitude,50898
NAD(P)H oxidase,50898
piceid,50898
Halobacterium salinarum,50898
diketo,50898
PC-1,50898
rare sugar,50898
C957T,50898
Outsourcing,50898
resonant inelastic X-ray scattering,50898
anisotropic diffusion,50898
GTP-binding protein,50898
NKG2D,50898
LCHAD deficiency,50898
Grammatical aspect,50898
mind reading,50898
Kohler,50898
levee,50898
pro-opiomelanocortin,50898
FKBP51,50898
Hwp1,50898
Sabah,50898
Pattern Recognition,50898
minimal volume,50898
MIs,50898
NaSH,50898
triple point,50898
Nodularia,50898
i-Pr,50898
ulnar styloid,50898
The Confusion,50898
XPath,50898
Free energy,50898
erysipelas,50898
DAA,50898
anticholinergics,50898
antiretroviral drug,50898
pirimiphos-methyl,50898
social revolution,50898
dihydropteroate synthase,50898
dipper,50898
NKX2-1,50898
mate guarding,50898
ESSO,50898
glass ceiling,50898
methylmalonyl-CoA,50898
remanence,50898
cannabis dependence,50898
U Orionis,50898
Lorentzian manifold,50898
monotreme,50898
square centimetre,50898
DNS,50898
dentin dysplasia,50898
Abcg5,50898
anhydrate,50898
pair-instability supernova,50898
BL Lac,50898
thallus,50898
Siegfried,50898
lomitapide,50898
clostridium,50898
cystine knot,50898
preganglionic,50898
EPSPS,50898
geminated,50898
TCL,50898
Two-dimensional gel electrophoresis,50898
peripheral oedema,50898
endodermis,50898
Earth-sized,50898
Malagasy,50898
nominal mass,50898
golimumab,50898
Sporothrix,50898
action tendency,50898
parsec,50898
dependent-marking,50898
asplenic,50898
interstitial deletions,50898
coming-of-age,50898
cultural studies,50898
OPCW,50898
3-manifold,50898
gastroscopes,50898
Lopinavir,50898
Thermal stress,50898
MALT1,50898
ARHGEF9,50898
baryon asymmetry,50898
antitoxic,50898
NSVT,50898
carr,50898
energy-dispersive X-ray spectroscopy,50898
CABC1,50898
Rashba,50898
Latex,50898
Muscle biopsy,50898
misophonia,50898
angiogenin,50898
Maghreb,50898
fallopian tube cancer,50898
taphonomic,50898
carbon alpha,50898
RGS4,50898
Anomala,50898
dioptre,50898
Focal seizures,50898
v-rel,50898
CDW,50898
illegal logging,50898
Holmberg II,50898
parabolic cylinder function,50898
Kout,50898
osmium tetroxide,50898
Population II,50898
PI4P,50898
brain heart infusion broth,50898
binimetinib,50898
polyposis registries,50898
rv,50898
Albinus,50898
ostium secundum,50898
Botucatu,50898
PERG,50898
toroidal field,50898
G-Technology,50898
salicylates,50898
DAC,50898
Purkinje cells,50898
Ericsson,50898
Lipschitz,50898
sucrase-isomaltase,50898
intimal hyperplasia,50898
S100A9,50898
sludging,50898
mammoth steppe,50898
dilaton,50898
CXCL16,50898
mlb,50898
1-butyl-3-methylimidazolium hexafluorophosphate,50898
L-shell,50898
botox,50898
Bunguran,50898
Drupadia theda,50898
phenethicillin,50898
drimane,50898
immune-mediated thrombocytopenia,50898
Anabaena circinalis,50898
peripheral vascular disease,50898
cell junction,50898
Leucoptera coffeella,50898
Bristol,50898
yaw,50898
MOC.,50898
ecomorphological,50898
glycogen synthase,50898
semispinalis capitis,50898
TRa,50898
two-port,50898
T-box,50898
Bio-Rad,50898
Magnaporthe grisea,50898
neuronal synapse,50898
INSS,50898
High Noon,50898
Antral follicle count,50898
HADHB,50898
HBS,50898
M. sympodialis,50898
hyperekplexia,50898
lever rule,50898
HII region,50898
vestibular system,50898
capitellum,50898
violacein,50898
Asymptotic analysis,50898
effective surface temperature,50898
geoheritage,50898
environmental movement,50898
forkhead-box,50898
cryptorchidism,50898
M. genavense,50898
variabilis,50898
enset,50898
miR-200,50898
tracheobronchitis,50898
unified model,50898
ABVD,50898
Comrie,50898
Homunculus,50898
Protatlanta,50898
emission-line,50898
stainable,50898
sugar beet,50898
RhoGEFs,50898
Siaya District,50898
Blood pH,50898
Meudon,50898
Mott insulator,50898
Cyperaceae,50898
Kallianpur,50898
marsupial,50898
image intensifier,50898
natrium,50898
mnemonic,50898
astrovirus,50898
European Medicines Evaluation Agency,50898
random error,50898
Genetic linkage,50898
HAF,50898
biological control agent,50898
UBE3A,50898
human pathology,50898
Factor IX,50898
columnar epithelium,50898
economic sociology,50898
The black hole,50898
Diarrhoea,50898
uterine fibroid,50898
succinyl-CoA,50898
isospectral,50898
thanatophoric dysplasia,50898
alexandrite,50898
stellar rotation,50898
angiotensin converting enzyme (ACE) inhibitor,50898
CISH,50898
chemerin,50898
bipolar outflow,50898
tropoelastin,50898
VMH,50898
ferromagnetism,50898
phonetics,50898
Lorentz factor,50898
Sarawak,50898
tricyclic antidepressant,50898
Glycation,50898
product selectivity,50898
exon-skipping,50898
RODAM,50898
2-deoxyglucose,50898
Measurement uncertainty,50898
ATOR,50898
FEV1/FVC ratio,50898
perineal body,50898
pancreatic lipase,50898
umbilicus,50898
monotypic,50898
binary code,50898
bpi,50898
genetic mapping,50898
charybdotoxin,50898
template method,50898
ototoxic,50898
2 X 2,50898
TFF1,50898
Subsoil,50898
femur fracture,50898
awamori,50898
NCF1,50898
algebraic curve,50898
sidewalls,50898
Adrenergic receptor,50898
Vital capacity,50898
FLNa,50898
cladoceran,50898
peroxisome biogenesis disorders,50898
Lobophora variegata,50898
Limulus,50898
alternative pre-mRNA splicing,50898
ADCK3,50898
Neonatal jaundice,50898
Heterochromia,50898
leptogenesis,50898
RAF,50898
photoelectrochemical,50898
all-trans-retinal,50898
butein,50898
Faecalibacterium,50898
pneumomediastinum,50898
Myzus persicae,50898
LEED,50898
proletarian revolution,50898
YOY,50898
MultiDark,50898
Reproductive Health Matters,50898
LPs.,50898
vernalization,50898
Chapman-Kolmogorov equation,50898
nd6,50898
Thioesterase,50898
FOB,50898
boiling point,50898
reticuloendotheliosis,50898
chromosome abnormalities,50898
sartorius muscle,50898
Misoprostol,50898
SO(10),50898
metalorganic,50898
amoebocyte,50898
Mucor circinelloides,50898
IUCN,50898
pubic bone,50898
light emitting diodes,50898
Oxford Knee Score,50898
synaptonemal complex,50898
sleep disorder,50898
high-grade prostatic intraepithelial neoplasia,50898
CBz,50898
autism spectrum quotient,50898
CARD8,50898
Thermal neutron,50898
Cuenca,50898
MCC,50898
global integrity,50898
aesthetic medicine,50898
radionuclide ventriculography,50898
beta-adrenergic blocker,50898
thrombolytic drugs,50898
vestigial,50898
CIII,50898
Adverse event,50898
New Technology Telescope,50898
homophony,50898
organized labor,50898
isoliquiritigenin,50898
pi-system,50898
LRP4,50898
Trip13,50898
hyperinsulinism,50898
H7N7,50898
gross anatomy,50898
DMSP,50898
cloverleaf skull,50898
Tedlar,50898
cholesteatoma,50898
potential-pH,50898
DFMO,50898
Niemann-Pick,50898
topcolor,50898
health care reform,50898
dofetilide,50898
connexin-43,50898
accessory pigments,50898
Brooker,50898
proletarianisation,50898
Titian,50898
exchange coefficients,50898
congestive cardiac failure,50898
linseed oil,50898
ramipril,50898
thermal radiation,50898
Active Galactic Nuclei,50898
EMEA,50898
HLA-DR4,50898
hoverflies,50898
log-likelihood ratio test,50898
Maxwellian,50898
isavuconazole,50898
microphysics,50898
Royal Hospital,50898
patrimonialism,50898
common goal,50898
chiral symmetry restoration,50898
megadiverse,50898
Marxist feminist,50898
gallbladder drainage,50898
Assay sensitivity,50898
cycloid,50898
complete control,50898
glutaryl-CoA,50898
2-pyridone,50898
object recognition memory,50898
developmental verbal dyspraxia,50898
LGBTQ,50898
bolometric luminosity,50898
ARMS2,50898
Southampton,50898
Aneuploidy,50898
immunoreactive trypsinogen,50898
corrected QT interval,50898
posterior cardinal vein,50898
asymmetric hydrogenation,50898
Parasite,50898
GLI3,50898
Calorimetry,50898
total-body irradiation,50898
Symbiodinium,50898
ID2,50898
broken power law,50898
face-on orbits,50898
Danchi,50898
cmH2O,50898
Exome Sequencing,50898
fragment antigen-binding,50898
tarsi,50898
posthuman,50898
increasing sequence,50898
karstic,50898
epitaxially,50898
homodimerization,50898
macromonomer,50898
Hepeviridae,50898
Orion arm,50898
Bock,50898
food addiction,50898
field desorption,50898
cost sharing,50898
disk density,50898
indwelling catheter,50898
transactional sex,50898
trochlear,50898
instability strip,50898
venous valve,50898
iron-sulfur protein,50898
lumbar hyperlordosis,50898
Killip Class,50898
pneumatic dilatation,50898
psychological horror,50898
deuterium burning,50898
SN Ia,50898
high-frequency ventilation,50898
Lire,50898
Malassezia,50898
cladogenesis,50898
Efavirenz,50898
tattoo,50898
Pseudallescheria,50898
MCF2L,50898
heatmaps,50898
peptide mass fingerprinting,50898
Control Council,50898
Gemba,50898
Randolph,50898
erbium,50898
nephrologist,50898
PEX13,50898
cuneus,50898
nDNA,50898
BMES,50898
Cryptobia,50898
oncostatin M,50898
esoteric,50898
Heemstede,50898
F-ratio,50898
Francoise Barre-Sinoussi,50898
R136a1,50898
VMB,50898
DUs,50898
photosystem 2,50898
refrigerant,50898
focal dystonia,50898
non-ionizing radiation,50898
Scedosporium prolificans,50898
HDLC,50898
DDAVP,50898
Clausius inequality,50898
tracheal stenosis,50898
Amplified fragment length polymorphism,50898
hindbrain,50898
myopia,50898
evidence-based mental health,50898
Gentamicin,50898
poloidal,50898
LOX-1,50898
Novelty Seeking,50898
BKV,50898
Sebald Justinus Brugmans,50898
ABC1,50898
chemical vapour deposition,50898
gender discrimination,50898
saclofen,50898
R Aquarii,50898
Neovascularization,50898
Green functions,50898
fatty acid-oxidizing,50898
red clump,50898
space velocity,50898
Inner Senses,50898
ERK pathway,50898
atomic model,50898
Euro 2012,50898
vicariance,50898
anti-thyroglobulin,50898
lymphatic leukemia,50898
Ralf,50898
intestinal polyp,50898
spot-on,50898
Octreotide,50898
eROSITA,50898
hnRNA,50898
S. enterica,50898
NCCM,50898
neoclassicism,50898
Milvus milvus,50898
pagan,50898
neogenin,50898
oral mucositis,50898
"su(1,1)",50898
Sulukule,50898
HCP5,50898
disability studies,50898
Grb10,50898
Canonical correspondence analysis,50898
gliogenesis,50898
BARC,50898
RING motif,50898
eed,50898
antennular,50898
lipid domains,50898
IVRT,50898
Colias hecla,50898
LP1,50898
cryptic speciation,50898
self-similarity,50898
T-24,50898
CFVR,50898
phased-array,50898
altmetric,50898
fibrillin-1,50898
cohesin,50898
C2C,50898
penicillin-binding protein,50898
HIFU,50898
Bern,50898
hypoalbuminemia,50898
New-Keynesian,50898
PCA3,50898
lymphoid progenitor cell,50898
Xmax,50898
regression spline,50898
AP-1 binding site,50898
Hela,50898
selective abstraction,50898
creation operator,50898
super-Jupiter,50898
SUCNR1,50898
lod,50898
Omron,50898
macroevolution,50898
The fading,50898
homograft,50898
Ciliary muscle,50898
Vulnerable,50898
Kato,50898
WDBC,50898
secondary messengers,50898
Re2O7,50898
GSI,50898
anterior horn cells,50898
pleocytosis,50898
RRAT J1819-1458,50898
Radiography,50898
ovipositor,50898
Alginate,50898
PCK1,50898
extractant,50898
KCC2,50898
strawberries,50898
Goserelin,50898
Type 1 DM,50898
Mdm2,50898
natamycin,50898
Qualitative data analysis,50898
MCT8,50898
stannin,50898
Stricture,50898
E15,50898
PAFAH1B2,50898
Tropical Andes,50898
Tabuaeran,50898
pyoderma,50898
berry,50898
heteroskedastic,50898
tidal radius,50898
Afrotropical,50898
C-22,50898
antiplatelets,50898
Gender inequality,50898
indobufen,50898
SNCV,50898
food preservation,50898
conduction electron,50898
compartmentalisation,50898
hyperopia,50898
Aquila pomarina,50898
SLC6A5,50898
GRB 030329,50898
boiled peanuts,50898
Nobel Prize,50898
oxygen debt,50898
multidisciplinarity,50898
columnar epithelia,50898
Lesogaberan,50898
maintenance chemotherapy,50898
lattice-based,50898
R136b,50898
spectral signature,50898
italica,50898
Dofetilide,50898
rostral ventrolateral medulla,50898
Arginase,50898
Heemskerk,50898
XXXIV,50898
White blood cell count,50898
NGC 1333,50898
early stopping,50898
autotaxin,50898
Rgs4,50898
calcium oxalate,50898
segmental arteries,50898
sexual network,50898
microwave oven,50898
"1,5-hydride shift",50898
mosmol,50898
PAK,50898
Jain,50898
medium-chain triglyceride,50898
Bromeliaceae,50898
cartilage oligomeric matrix protein,50898
PbR3,50898
organic acidemias,50898
macrolide,50898
Vasospasm,50898
light-curve,50898
small RNA,50898
PYGL,50898
Optic disc,50898
propacetamol,50898
botrys,50898
solar conversion efficiency,50898
Flex,50898
Iris,50898
dichlorodifluoromethane,50898
Neumark-Nord,50898
rtPA,50898
PHOX2B,50898
accidental sampling,50898
Psammophiinae,50898
drawer test,50898
dppm,50898
varespladib,50898
uri,50898
electronmicroscopy,50898
ubiquitylation,50898
eutectoid,50898
Red List,50898
negative pregnant,50898
all-sky survey,50898
P388,50898
givinostat,50898
DCL,50898
pachygyria,50898
Wenckebach,50898
ventricular zone,50898
Magnification,50898
Open-heart surgery,50898
Kv2.1,50898
sick sinus syndrome,50898
n-type semiconductor,50898
Large Binocular Telescope,50898
IRP,50898
HOS,50898
inactivated vaccine,50898
Gen-Probe,50898
Hemerophis,50898
euchromatin,50898
tiw,50898
CCL8,50898
Pinal,50898
duck,50898
Desulfobacter,50898
Smads,50898
scintigraphies,50898
figure-eight knot,50898
NCP,50898
Mating type,50898
chlorodifluoromethane,50898
allopatric,50898
intra-articular fracture,50898
bone marrow toxicity,50898
Tfh cells,50898
goitre,50898
tolbutamide,50898
cyclic group,50898
Coloproctology,50898
clinodactyly,50898
Lot,50898
Lolium,50898
val158met,50898
muscularis mucosa,50898
ratio distribution,50898
bacterial artificial chromosome,50898
vaginal administration,50898
Eddington limit,50898
PS20,50898
pulmonary regurgitation,50898
Illinois,50898
enteric neurons,50898
BART,50898
DNAse1,50898
Hormonal treatment,50898
Henry reaction,50898
B57,50898
vitamin B1,50898
f-score,50898
ovarian dysfunction,50898
Ochnaceae,50898
gut-associated lymphoid tissue,50898
frontal bossing,50898
Kingman,50898
interdental papilla,50898
ACADM,50898
undescended testicles,50898
coulomb scattering,50898
mIBG,50898
lipiodol,50898
herbaceous plant,50898
TdP,50898
SKIL,50898
Relative Risk,50898
The rebound,50898
pars opercularis,50898
bow shocks,50898
Dexamphetamine,50898
IL6R,50898
polyphagy,50898
Rhizopus,50898
co-trimoxazole,50898
zuclopenthixol,50898
orthogonal polarization spectral imaging,50898
Larus cachinnans,50898
Alternative splicing,50898
occultist,50898
matrix management,50898
globotriaosylceramide,50898
Inner ear,50898
chromosome 15,50898
Critically Endangered,50898
triheptanoin,50898
songbird,50898
ferroelectric,50898
apo B,50898
pinwheel,50898
cerebral venous system,50898
thione,50898
Petrus Camper,50898
media filter,50898
Vivian Sobchack,50898
Thermal analysis,50898
PDE4,50898
minimum mass,50898
creatine phosphokinase,50898
TnT,50898
Berbee,50898
asymptotically optimal,50898
Cooperativeness,50898
Hypothenemus hampei,50898
stream surface,50898
Ottawa,50898
pre-excitation,50898
nuclear density,50898
Baetidae,50898
WbWb,50898
nucleotide triphosphate,50898
High-sensitivity C-reactive protein,50898
efficiency factor,50898
homoskedastic,50898
oxazole,50898
turbinates,50898
beta-sitosterol,50898
Abstaining,50898
opuntia,50898
microfiltration,50898
Girard,50898
hydrocele,50898
total set,50898
pre-Cambrian,50898
Abscess,50898
ORF2,50898
ATP-hydrolysis,50898
phylogeographical,50898
sulodexide,50898
"1,2-elimination",50898
compression wave,50898
congenital heart defect,50898
endarteritis,50898
SET domain,50898
STP,50898
Tamsulosin,50898
SPD.,50898
Pomeron,50898
semicrystalline,50898
mass-to-light ratio,50898
qEEG,50898
soft gamma repeater,50898
bone morphogenic proteins,50898
Isp,50898
European CanCer Organisation,50898
agalsidase,50898
Sco OB2,50898
[O III,50898
auranofin,50898
group sex,50898
endoglucanase,50898
clofibrate,50898
KLH,50898
CD79B,50898
true negative rate,50898
Reward Dependence,50898
LLM,50898
inferior temporal gyrus,50898
chlorotrifluoromethane,50898
CCL14,50898
soft water,50898
EAAC1,50898
Groningen University,50898
CG3,50898
transcription-factor binding sites,50898
7-aminoactinomycin D,50898
Harmelen,50898
Cav1,50898
Duke University,50898
ajmaline,50898
Demographic Surveillance System,50898
Brott,50898
R136a,50898
Microlife,50898
Pitt,50898
nucleus ambiguous,50898
pearlite,50898
Malaysian Borneo,50898
HBV vaccine,50898
concatemer,50898
Mundial,50898
kappa chain,50898
liver abscess,50898
The conviction,50898
12R,50898
H.pylori,50898
Oxidative decarboxylation,50898
pex5,50898
antifibrotic,50898
Periprosthetic,50898
electroluminescent,50898
thionine,50898
GRP,50898
Adamson,50898
Comarum palustre,50898
heterotopic ossification,50898
SGT1,50898
Sonic Hedgehog,50898
Aspartate aminotransferase,50898
M-P,50898
heterothallic,50898
acclimatisation,50898
Artois,50898
WPBC,50898
hepadnavirus,50898
biliary tract infections,50898
Brodmann area,50898
magnetic poles,50898
Orion Nebula,50898
Detrended fluctuation analysis,50898
deformation theory,50898
first-order reaction,50898
Chicago School economist,50898
Haliclona oculata,50898
deindividuation,50898
coffee culture,50898
IQ test,50898
primary HIV infection,50898
catecholaminergic polymorphic ventricular tachycardia,50898
quadratic non-residue,50898
inductive reasoning,50898
mesityl,50898
verbal behaviour,50898
Tarantula Nebula,50898
Maynard,50898
benzoyl-CoA reductase,50898
Sint Maarten,50898
temporal coherence,50898
weak mixing angle,50898
clavicular fracture,50898
hyperinsulinemic hypoglycemia,50898
favism,50898
pluripolar set,50898
Nanosecond,50898
code switching,50898
Hydroides,50898
Ralstonia eutropha,50898
neem tree,50898
aphorism,50898
SGR J1550-5418,50898
ELUS,50898
sporotrichosis,50898
tonsillectomy,50898
guanxi,50898
norm group,50898
iAd,50898
Christopher Ferguson,50898
Tonks-Girardeau gas,50898
desmid,50898
CD132,50898
Arcminute Microkelvin Imager,50898
hexafluoro-2-propanol,50898
black yeast,50898
Mpongwe,50898
foreclosure,50898
global insight,50898
orthopaedic surgery,50898
reliant,50898
voluntarism,50898
interventional cardiology,50898
macroautophagy,50898
optimism bias,50898
Confucius,50898
Rhinosinusitis,50898
common land,50898
salsa,50898
prime power,50898
parasitic diseases,50898
first-order language,50898
Varna,50898
The proposition,50898
end-stage kidney failure,50898
Veen,50898
ascribed characteristics,50898
Johansen,50898
Iron Curtain,50898
assembly map,50898
ryanodine receptor,50898
HADHA,50898
infusion set,47666
William Herschel Telescope,50898
psychodermatology,50898
Navier-Stokes equations,50898
gold mining,50898
real estate broker,50898
Karl Marx,50898
austenite,50898
"Pleasanton, CA",50898
Certolizumab pegol,50898
chronic otitis externa,50898
Vienna Convention,50898
PGPR,50898
Patient S.M.,50898
UNTAC,50898
language evolution,50898
biominerals,50898
Brian Massumi,50898
surveillance camera,50898
Chronic Fatigue Syndrome,50898
plasma cell dyscrasia,50898
IPO,50898
hyoscine butylbromide,50898
matching pursuit,50898
SWIFT,50898
masculine gender,50898
eosinophilic esophagitis,50898
volume rendering,50898
GRB 101225A,50898
reverberation mapping,50898
astronomer,50898
Mediastinal Lymphadenopathy,50898
Stalinist,50898
cyanohydrin,50898
Byumba,50898
Paul Kammerer,50898
n-gram,50898
Cardona,50898
internal audit,50898
asymptotically free,50898
zucchini,50898
Schiphol Airport,50898
psychological dependence,50898
model skin,50898
5-HT6 receptor,50898
superpolynomial,50898
ethyl lactate,50898
fiscal sustainability,50898
molecular emission,50898
glucose-6-phosphatase,50898
Extracorporeal,50898
matrix function,50898
collapsar,50898
Sara Lee,50898
metaheuristics,50898
GRB 970228,50898
IBA,50898
Orientalist,50898
Near East,50898
Juan Rodolfo Wilcock,50898
dialectic,50898
Raphidophyceae,50898
antifungal drug,50898
Palomar,50898
operads,50898
Kayan Mentarang National Park,50898
appraisal theory,50898
GC%,50898
white oak,50898
port-wine stain,50898
Absolutism,50898
Journal Citation Report,50898
Ibopamine,50898
drop impact,50898
dysmorphology,50898
focal nodular hyperplasia,50898
arista,50898
Wrist Arthroscopy,50898
psychiatric nursing,50898
avihepadnavirus,50898
quantum gravity,50898
arc discharge,50898
team production,50898
globally uniform,50898
BJOG,50898
galactic longitude,50898
HbC,50898
voice disorders,50898
UBVRI,50898
vehicular ad hoc network,50898
cerebral venous thrombosis,50898
breast cancer care,50898
Mohammed Mosaddeq,50898
norethisterone enanthate,50898
monoclonal gammopathies,50898
Wound care,50898
project definition,50898
fixed cycle,50898
spacelike,50898
socioecology,50898
VLBA,50898
Enron,50898
indexical,50898
Preimplantation genetic screening,50898
collective variable,50898
endolymphatic hydrops,50898
cultural psychology,50898
winter moth,50898
Kohonen,50898
Kepler Mission,50898
DTNBP1,50898
Pavlovian conditioning,50898
Data Retention Directive,50898
Manhattan,50898
wild barley,50898
calyx,50898
N400,50898
all-pay auction,50898
currency crises,50898
nanocrystal,50898
rational equivalence,50898
optimality theory,50898
physician training,50898
quenched disorder,50898
Vixen,50898
orientifold,50898
Microplana terrestris,50898
Durban,50898
birth control,50898
homophonic,50898
Fukaya,50898
Coloboma,50898
Spiritualist,50898
social philosophy,50898
ethology,50898
sample space,50898
partial correctness,50898
decay-accelerating factor,50898
philopatry,50898
stellar nursery,50898
single-payer healthcare,50898
Pohnpei,50898
functional completeness,50898
VoIP,50898
phagemid,50898
Scleractinian,50898
Millennium Development Goals (MDGs),50898
aquaporins,50898
biological motion,50898
electroneutral exchange,50898
haplo-diploid,50898
rail transport,50898
WISE,50898
Hesse,50898
Quest,50898
Latent Dirichlet Allocation,50898
quasispecies,50898
Coroner,50898
2010 local elections,50898
nonspecific symptoms,50898
DABCO,50898
chromosome translocation,50898
late modernity,50898
The Need,50898
terrorist financing,50898
administrative panel,50898
Cartesian coordinates,50898
molecular-beam epitaxy,50898
Loyalty program,50898
demethylates,50898
baremetal,50898
epiphysiodesis,50898
finitely generated,50898
unsolved mysteries,50898
folding models,50898
ascospores,50898
Ethiopian Highlands,50898
Michael Haneke,50898
pentatonic,50898
phase sequence,50898
holographic dual,50898
warm autoimmune hemolytic anemia,50898
DEL,50898
EBITDA,50898
Sloan Digital Sky Survey (SDSS),50898
STRIDE,50898
animal shelter,50898
total syntheses,50898
Smoluchowski,50898
quark-gluon plasma,50898
fertile ground,50898
Ilya,50898
cultural psychiatry,50898
molar equivalent,50898
lattice plane,50898
HIV vaccine,50898
Frederik Ruysch,50898
Psychosis,50898
cyclopropanation,50898
hydraulic structure,50898
Concept mapping,50898
bone morphogenetic proteins,50898
Maxwell-Stefan equation,50898
NPR,50898
Echinococcosis,50898
massive gravity,50898
felony,50898
executive functioning skills,50898
Schmidtea mediterranea,50898
Republican Party,50898
Judaism,50898
Independent Set,50898
air pollutant,50898
dodecanal,50898
animal science,50898
oxyhemoglobin,50898
1-phenylethylamine,50898
Picard,50898
Thijs,50898
convection-diffusion equation,50898
capillary malformation,50898
Spirobranchus,50898
Coronaviridae,50898
radioactive contamination,50898
naphthoquinone,50898
end-capped,50898
ultraluminous X-ray source,50898
Blattella germanica,50898
Olanzapine,50898
OB association,50898
surface diffusion,50898
Banting,50898
superscalar,50898
Bangweulu wetlands,50898
dichromatic,50898
network governance,50898
gastrointestinal stromal tumor,50898
Richard II,50898
melodrama,50898
content marketing,50898
pragmatism,50898
Philosophical Review,50898
Cambridgeshire,50898
Levett,50898
micro-organism,50898
cesium,50898
propositional calculus,50898
crucial technology,50898
Astroviridae,50898
agricultural diversification,50898
Ingolfiellidae,50898
CET,50898
acute retroviral syndrome,50898
sneezing,50898
ATRT,50898
multiscale models,50898
gender history,50898
Menden,50898
C*-algebra,50898
phosphatidyl choline,50898
Bamberg,50898
Space Telescope Imaging Spectrograph,50898
column matrix,50898
topological insulators,50898
Amphipoda,50898
Future Internet,50898
carpometacarpal joint,50898
ND1,50898
alternative liability,50898
mental image,50898
macrophage-stimulating protein,50898
allomorph,50898
Staudinger ligation,50898
ICL,50898
strategic complementarity,50898
left-right model,50898
IntraHealth International,50898
Blantyre district,50898
breast implant,50898
pregnadiene,50898
Sluis,50898
extremal graph theory,50898
team dynamics,50898
Palmyra,50898
Johnny Cash,50898
avant-garde,50898
Local election,50898
Westerbork Synthesis Radio Telescope,50898
The sheer,50898
WHI,50898
Mucorales,50898
hydrogen sulfide,50898
applied statistics,50898
Praelector,50898
paired data,50898
Joep Lange,50898
spreading activation,50898
sociotechnical system,50898
PETN,50898
Resource mobilization,50898
functional neurological symptom disorder,50898
blogosphere,50898
bone-anchored hearing aid,50898
OUP,50898
haematuria,50898
attenuator,50898
Endoscopic retrograde cholangiopancreatography,50898
Reproductive isolation,50898
congenital disease,50898
Giselle,50898
human geography,50898
diffraction pattern,50898
statistical dependence,50898
INEX,50898
anti-de Sitter,50898
Crossover study,50898
Opioid,50898
targeted advertising,50898
user fee,50898
legal certainty,50898
Trichosporon,50898
two-dimensional chromatography,50898
astronomical Almanac,50898
vlogs,50898
O-type star,50898
Annona,50898
medical receptionist,50898
feminine gender,50898
Cournot,50898
complex fluid,50898
Gutland,50898
bed net,50898
Kenitra,50898
Financial Accounting Standards Board (FASB),50898
Social order,50898
function algebra,50898
governmentality,50898
Aten,50898
volume element,50898
phocids,50898
monosilicide,50898
flatworm,50898
European Respiratory Society,50898
French franc,50898
Divergent thinking,50898
Samaritan,50898
string background,50898
social health insurance,50898
SUI,50898
nonnegative matrices,50898
solar nebula,50898
network node,50898
Barn Owl,50898
metallocene,50898
immortality,50898
EFTA,50898
transboundary river,50898
rectal prolapse,50898
Downsian,50898
modular form,50898
subaltern,50898
Royal Theatre,50898
misfolding,50898
diastolic depolarization,50898
Alzira,50898
l-Arginine,50898
pex7,50898
ureterocele,50898
whorl,50898
UPTC,50898
Peri,50898
climbing fibre,50898
defibrotide,50898
allelopathic,50898
Plexin,50898
rectococcygeal,50898
vasoactive intestinal peptide,50898
sensilla,50898
Ras-binding domain,50898
cereal farming,50898
rotating black hole,50898
mibefradil,50898
SMC6,50898
Eph receptor,50898
Hyperprolinemia,50898
intense pulsed light,50898
iron-responsive element,50898
pathogenicity island,50898
TPM1,50898
spermiogenesis,50898
anterior pituitary gland,50898
Calorie restriction,50898
VTA1,50898
reverse-transcriptase inhibitor,50898
Brillouin zone,50898
Goitre,50898
bodonid,50898
Desert Hedgehog,50898
anabaseine,50898
DNase1,50898
Balmer,50898
intestinal malabsorption,50898
NIHR,50898
ginseng,50898
neuronal oscillations,50898
heat shock protein 90,50898
CXCL4,50898
end-tidal CO2,50898
Caltha palustris,50898
Cajal-Retzius cells,50898
Sylvia Hortensis,50898
mesophyll cell,50898
distant relatives,50898
Prolongation,50898
TSEN34,50898
pleural empyema,50898
sulfur-oxidizing bacteria,50898
palmitoylethanolamide,50898
endoparasite,50898
MEK.,50898
plasma exchange,50898
galacto,50898
autosome,50898
Maize,50898
Vmat2,50898
PIP2,50898
tyrosine phosphatase,50898
discoidin domain,50898
Hypothermia,50898
Als2,50898
non-allergic rhinitis,50898
a6,50898
tetrafluoromethane,50898
tofacitinib,50898
functional impulsivity,50898
Field desorption,50898
eta Carinae,50898
thyroid function test,50898
CCL15,50898
Abnormal uterine bleeding,50898
runaway star,50898
Utrecht University,50898
ERBB3,50898
bronchial thermoplasty,50898
quantitative electroencephalography,50898
NDP52,50898
Haemophilia,50898
MAP2K1,50898
Cosyntropin,50898
diffuse optical imaging,50898
virome,50898
contrast-to-noise ratio,50898
cyclic neutropenia,50898
cholera toxin B,50898
positive symptom,50898
ginkgo biloba,50898
methemoglobin reductase,50898
TSEN2,50898
oleoylethanolamide,50898
Cicely,50898
Coffee plants,50898
F. pedrosoi,50898
sympatry,50898
hologenome,50898
ND5,50898
Oncology Nursing Society,50898
Endocytosis,50898
parva,50898
CCL16,50898
GABAB receptors,50898
forced swim test,50898
traumatic aortic rupture,50898
spiperone,50898
Vim,50898
Heredity,50898
respiratory difficulties,50898
black-body radiation,50898
cyclic form,50898
Sparganium,50898
cellular memory,50898
GTS-21,50898
oxidative enzyme,50898
hyperprolinemia,50898
vancomycin-resistant enterococcus,50898
gremlin,50898
Data set,50898
miR-19a,50898
dipotassium,50898
Kumasi,50898
hard water,50898
ship grounding,50898
I2C,50898
Surface tension,50898
meclofenamic acid,50898
Gunn rat,50898
semilunar valve,50898
Sox4,50898
Virulence,50898
ordinal analysis,50898
RalGDS,50898
Christchurch Hospital,50898
orbital decay,50898
LMX1A,50898
choledocholithiasis,50898
mww,50898
rtPCR,50898
STAT6,50898
Mauritiella,50898
Nitroprusside,50898
breech delivery,50898
Aspergillus fumigatus,50898
MurG,50898
mossy fibers,50898
TVR,50898
mercury lamp,50898
migratory insertion,50898
Open Access,50898
HuR,50898
Sult,50898
small hairpin RNA,50898
Paxilline,50898
Cygnus A,50898
immunoadsorption,50898
polyomavirus,50898
adrenal medulla,50898
NEtherlands,50898
meta-chlorophenylpiperazine,50898
Otago,50898
permissive hypercapnia,50898
electromagnetic field,50898
Menyanthes trifoliata,50898
ICTP,50898
initial mass function,50898
Serum ferritin,50898
Internacional,50898
The bundles,50898
circumbinary,50898
polytypic,50898
bronchiectasis,50898
dorsal raphe nucleus,50898
CXADR,50898
shunt system,50898
7-OH-DPAT,50898
angiopoietin 1,50898
SMP,50898
Lactase,50898
synapsis,50898
silica-alumina,50898
radio silence,50898
workforce productivity,50898
detrusor muscle,50898
Th1 cell,50898
angular separation,50898
HDAC9,50898
Obuasi,50898
cytokinin,50898
startle response,50898
Bionumerics,50898
dorsal root,50898
azeotropic mixtures,50898
niche separation,50898
Nested PCR,50898
rapid eye movement sleep,50898
TSC2,50898
accomodation,50898
orthology,50898
electronvolt,50898
oxygenase,50898
arteriovenous anastomoses,50898
corticotropin releasing hormone receptor 1,50898
Ashanti,50898
solar chemical,50898
pyrexia,50898
MMP1,50898
lipoxygenase inhibitor,50898
colubrids,50898
H-01,50898
GAC,50898
Delirious,50898
Borel structure,50898
Inga tree,50898
FIRS,50898
key agreement,50898
eotaxin,50898
Alu element,50898
skin-prick tests,50898
verbal fluency test,50898
GLUT-1,50898
age adjustment,50898
FRS2,50898
Madurella grisea,50898
Theria,50898
PAX8,50898
Engineering Society,50898
open windows,50898
EGTA,50898
Locomotor activity,50898
long-term depression,50898
shampoo,50898
Voriconazole,50898
harm avoidance,50898
RAF1,50898
DNAM,50898
ECTO,50898
episclera,50898
"receptors, angiotensin",50898
trochlea,50898
large T antigen,50898
affect measures,50898
carotid bodies,50898
B7-2,50898
Amniocentesis,50898
ropivacaine,50898
active galactic nucleus,50898
strong set,50898
Trapezium,50898
nematicidal,50898
healthcare-associated,50898
kala-azar,50898
Muller glia,50898
nanomedicine,50898
exclusion zone,50898
PDE3,50898
Corylus,50898
Degranulation,50898
superior sagittal sinus,50898
Yakutian,50898
coffee plants,50898
self-directedness,50898
Liver disease,50898
internal jugular vein,50898
pregnancy-associated malaria,50898
Dystonic,50898
biotin carboxylase,50898
GAERS,50898
anterior chamber angle,50898
XRP,50898
palp,50898
viral quasispecies,50898
spontaneously broken,50898
BA9,50898
phylogenetic species concept,50898
common hepatic duct,50898
Delocalization,50898
Ephemeroptera,50898
Montastraea,50898
blastula,50898
vascular malformation,50898
chromosome territories,50898
biological pacemaker,50898
Na(V)1.5,50898
MXR,50898
Chloride,50898
DARPP-32,50898
paraprotein,50898
IL-1R,50898
Passive immunization,50898
dorsal aorta,50898
Rossman fold,50898
CTDP1,50898
dark reactions,50898
severe exposure,50898
decompression illness,50898
atractyloside,50898
neurogliaform cells,50898
subadditivity,50898
EGF domain,50898
CSMD1,50898
Croydon,50898
Pfizer,50898
Trichoptera,50898
DVa,50898
purple sulfur,50898
Heart defects,50898
Acropora cervicornis,50898
icatibant,50898
A20,50898
branched-chain amino-acid,50898
SIGIRR,50898
human metapneumovirus,50898
Falciformispora,50898
prolyl 4-hydroxylase,50898
Robeson,50898
osteitis,50898
trabecular meshwork,50898
Lake Malawi,50898
fluoroquinolone,50898
Strep-Tag,50898
shielding gas,50898
PDGFRA,50898
retching,50898
Neuropeptide,50898
mEq,50898
Cyclin E,50898
environmental communication,50898
intercalated disc,50898
Submucosa,50898
carotid sinus hypersensitivity,50898
SMRT,50898
Hubble Deep Field,50898
KOU,50898
oxygenate,50898
H1 receptor,50898
Pseudoxyrhophiinae,50898
anterior nuclear group,50898
coffee leaf miner,50898
Chromaffin cells,50898
Nandrolone decanoate,50898
statistically mediated,50898
haloperoxidase,50898
sex determination,50898
tympanic,50898
MEF2C,50898
melting curve analysis,50898
Nevirapine,50898
Photodetector,50898
Raltegravir,50898
PAR1,50898
biliary tract cancer,50898
olecranon,50898
moxifloxacin,50898
Hh signaling,50898
Anas strepera,50898
copA,50898
ciliary processes,50898
LII,50898
Mediator complex,50898
neurogenic bladder dysfunction,50898
Microcosm,50898
corticotrophin,50898
Turbellaria,50898
triolein,50898
ring 2,50898
Cytochalasin B,50898
RyR1,50898
essential thrombocythaemia,50898
local thermodynamic equilibrium,50898
aerobic bacteria,50898
antigenic variation,50898
Trapezium cluster,50898
reciprocal translocations,50898
neurulation,50898
VEGF receptors,50898
Charybdotoxin,50898
Chemoreceptor,50898
Biatriospora,50898
Lake Tanganyika,50898
MED12,50898
pars plana,50898
Illumina sequencing,50898
non-dipolar,50898
ammonium sulfate precipitation,50898
Myrtaceae,50898
ECAD,50898
RNA hairpin,50898
surgical neck,50898
Cholangitis,50898
oxidiser,50898
nodal analysis,50898
maxillary nerve,50898
noradrenalin,50898
Phalacrocorax,50898
Memantine,50898
C-kit,50898
apoptosis-inducing factor,50898
la Cordillera Central,50898
group character,50898
intrathecal injection,50898
MAP2K2,50898
angiopoietin,50898
African lakes,50898
Mycetoma,50898
Cholangiography,50898
gangrenous,50898
Grus virgo,50898
ESRI,50898
antipyretic,50898
social approval,50898
A horizon,50898
axonal guidance,50898
FCP1,50898
Sloan Digital Sky Survey,50898
Somatosensory evoked potentials,50898
conjunctivitis,50898
titanium alloy,50898
ring 1,50898
benzoyl-CoA,50898
photocatalyst,50898
Gpr158,50898
Dietary supplements,50898
dysfunctional impulsivity,50898
cardiac reserve,50898
Carotid sinus,50898
negative B,50898
Pleosporales,50898
secondary immune response,50898
receptor-mediated endocytosis,50898
Ca2+-activated K+ channels,50898
Tie-2,50898
lipid droplet,50898
Antioquia,50898
species concept,50898
Ophthalmoscopy,50898
progerin,50898
Multiplicity,50898
cribriform plate,50898
tanycyte,50898
multiseptate,50898
MELS,50898
The intruders,50898
Operophtera brumata,50898
deadweight loss,50898
William Gamson,50898
Peirce,50898
Medan,50898
complex manifold,50898
man-in-the-middle,50898
type specimen,50898
Patient participation,50898
speech segmentation,50898
Burst Alert Telescope,50898
offshore financial center,50898
MiRNA,50898
family therapy,50898
scaling functions,50898
Wimbledon,50898
expert network,50898
weighted digraph,50898
ordinal variable,50898
guanine nucleotide exchange factors,50898
Web Archive,50898
Big 5,50898
Kepler space mission,50898
Bruxelles,50898
historical records,50898
Miyoshi,50898
catastrophe theory,50898
Enlightenment,50898
Tursiops,50898
MPSoC,50898
risk neutrality,50898
Collagen-induced arthritis,50898
psycho-sexual development,50898
hair analysis,50898
consecutive case series,50898
technological spillovers,50898
X-4,50898
VLTI,50898
integrable model,50898
titanium dioxide,50898
cryptococcal meningitis,50898
Pforzheim,50898
borderline leprosy,50898
rust,50898
Macaca fascicularis,50898
Azadirachta indica,50898
eumycetoma,50898
windfall profits,50898
IASB,50898
mesocorticolimbic pathway,50898
anti-de Sitter space,50898
Middle Dutch,50898
electrowetting,50898
delta Orionis,50898
Ambulatory Blood Pressure Monitoring,50898
mobile telephony,50898
ODS,50898
congenital hyperinsulinism,50898
Project X,50898
cyanoacrylate,50898
NPRs,50898
Kalverstraat,50898
food contact materials,50898
Fischer-Tropsch,50898
mu-calculus,50898
Hugh Montgomery,50898
brain mapping,50898
polyvinyl acetate,50898
political philosophy,50898
Taliban,50898
chiral auxiliary,50898
blue straggler,50898
tungsten-halogen lamp,50898
Foucauldian,50898
Australian Square Kilometre Array Pathfinder,50898
sympatholytic,50898
Compton Telescope,50898
black vulture,50898
ECMM,50898
thalamic stimulator,50898
domain-specific language,50898
mandibular canal,50898
Heaviside,50898
science fiction,50898
September 11 attacks,50898
Von Neumann entropy,50898
theoretical computer science,50898
neuropsychiatric disorder,50898
bilateral symmetry,50898
IAd,50898
Friedrich Engels,50898
periodic orbit,50898
Reidemeister,50898
dark-field microscopy,50898
Reverse cholesterol transport,50898
cosmopolitan distribution,50898
adrenocortical tumor,50898
heparin-induced thrombocytopenia,50898
Dietrich,50898
Nobel Biocare,50898
Netherlandish,50898
Gaussian Mixture Model,50898
opsoclonus,50898
Chromatin,50898
instruction level,50898
Presbytis,50898
pentaerythritol,50898
IRC+10216,50898
party drug,50898
Hummel,50898
anisotropy energy,50898
Staurastrum,50898
M(atrix) theory,50898
superstrings,50898
lobbyist,50898
CNN,50898
Levallois-Perret,50898
bioconjugation,50898
DAVI,50898
RIG-I-like receptors (RLRs),50898
paprika,50898
Cajamarca,50898
Afterglow,50898
Wallace Clement Sabine,50898
calcium imaging,50898
underground economy,50898
Uruk,50898
Humanities Indicators,50898
Sacramento,50898
spectral gap,50898
state-socialism,50898
sister chromatids,50898
side streets,50898
normative analysis,50898
working fluid,50898
Seyfert galaxies,50898
prime time,50898
hydrozoan,50898
multivariate distribution,50898
P48,50898
Swedenborgian,50898
CLEF,50898
XLRS,50898
Peabody Picture Vocabulary Test,50898
Potamopyrgus antipodarum,50898
graded algebra,50898
Tongeren,50898
tolterodine,50898
acute sinusitis,50898
topological insulator,50898
Vught,50898
Dikerogammarus villosus,50898
crossover studies,50898
cubic hypersurface,50898
beta-hemolytic,50898
global optimization,50898
hate speech,50898
XML retrieval,50898
experimental cancer treatment,50898
qubit,50898
allergist,50898
Rauch,50898
foreign exchange market,50898
coy,50898
categorical perception,50898
spirocyclic,50898
magnetization dynamics,50898
Estonia,50898
grand canonical,50898
informetrics,50898
non-allelic homologous recombination,50898
Hadamard matrix,50898
CROP,50898
Welsh,50898
relative pitch,50898
Schizaphis graminum,50898
tissue expander,50898
Guarulhos,50898
Christian Petzold,50898
Ciliary body,50898
trade sale,50898
MAXENT,50898
young urban professional,50898
black belt,50898
Gilles Deleuze,50898
temporal bone,50898
high-beta,50898
Prozac,50898
Hamming distance,50898
GOF,50898
Neurologist,50898
tango,50898
Atheroma,50898
Beaver Dam,50898
number theory,50898
ARL,50898
World Health Report 2000,50898
computer-assisted language learning,50898
Stalinism,50898
wrinkle,50898
guided imagery,50898
topological analysis,50898
minimally invasive procedures,50898
spreading processes,50898
utricle,50898
NDRG1,50898
Heliothis subflexa,50898
Edward Lazear,50898
TEPs,50898
theatricality,50898
urban studies,50898
noun phrase,50898
surgical aortic valve replacement,50898
variable kernel density estimation,50898
partial ordering,50898
Moerdijk,50898
epigastrium,50898
Scleractinia,50898
service science,50898
frequentist statistics,50898
mirror matter,50898
Conventional wisdom,50898
Washington Consensus,50898
Porter hypothesis,50898
atheists,50898
white balancing,50898
paralinguistic,50898
wage restraint,50898
complex reflection group,50898
Durham,50898
Natural resource,50898
Micronesia,50898
explant culture,50898
photonics,50898
prospective costs,50898
work-life balance,50898
Propylthiouracil,50898
microsociology,50898
monotheistic,50898
ectopic calcification,50898
WorldCat.org,50898
frontal sinus,50898
virtual libraries,50898
feline foamy virus,50898
municipal waste,50898
Gatti,50898
purple sulfur bacteria,50898
Jardine,50898
First Order,50898
over-the-counter,50898
webbed neck,50898
St Jude Medical,50898
rhizomelic,50898
Gabor filter,50898
cerebral venous sinus thrombosis,50898
infant colic,50898
intergenerational justice,50898
voltage-dependent sodium channel,50898
particle image velocimetry,50898
Dutch crisis,50898
Lars von Trier,50898
Contract Act,50898
pulmonary emboli,50898
franc,50898
organometallic chemistry,50898
K-theory,50898
video game genres,50898
IMBP,50898
depot medroxyprogesterone acetate,50898
precordial,50898
autosomal dominant cerebellar ataxia,50898
projected separation,50898
readiness potential,50898
antiproton,50898
atomic nucleus,50898
de Rham,50898
CHAID,50898
Mediapart,50898
gut motility,50898
Recurrent miscarriage,50898
anamorph,50898
criminology,50898
World Trade Center,50898
cone algorithm,50898
Mucoromycotina,50898
storm drain,50898
European Soccer Championship,50898
Hepadnaviridae,50898
hypothesis test,50898
undescribed species,50898
supersolid,50898
multicrystalline silicon,50898
Jacksonian,50898
AGXT,50898
seaside resort,50898
unconscious cognition,50898
deterritorialization,50898
NPU,50898
photochromes,50898
karyotypic,50898
stochastic differential equation,50898
nosocomial pneumonia,50898
entailment,50898
dimethylsulfide,50898
Galilean invariant,50898
non-parametric statistics,50898
American Thoracic Society,50898
hyperbaric oxygen therapy,50898
metafor,50898
semimetal,50898
council housing,50898
trump,50898
open economy,50898
probabilistic argument,50898
European female,50898
allocative inefficiency,50898
Data quality,50898
metabotropic glutamate receptor,50898
intermediate logic,50898
Mark 3,50898
p-xylene,50898
TAK1,50898
Cybernetics,50898
interpolant,50898
giant planet,50898
radio-frequency interference,50898
schwa,50898
spin density wave,50898
Arthur Koestler,50898
ACLE,50898
underachievement,50898
Cambridge Crystallographic Data Centre,50898
High School Musical,50898
Baesweiler,50898
quasireversibility,50898
stress ligands,50898
stomas,50898
Kikuyu,50898
being-in-the-world,50898
Paired data,50898
Blackwell,50898
Informetrics,50898
ontology engineering,50898
institutionalized slavery,50898
administrative law,50898
global arena,50898
TUs,50898
noggin,50898
ROBO1,50898
Cordillera Occidental,50898
Rivaroxaban,50898
PEX7,50898
Bubo,50898
benzoylecgonine,50898
desalination plant,50898
Akt/PKB,50898
Fgf15,50898
Ultrasound biomicroscopy,50898
Varespladib,50898
cardinal sign,50898
Reed Elsevier,50898
PAR4,50898
pycnidia,50898
Monotremata,50898
actin remodeling,50898
Lundby,50898
estudio 1,50898
codeine,50898
acetylcarnitine,50898
c-Kit,50898
chaperone proteins,50898
Tofacitinib,50898
MAPK3,50898
Penetration depth,50898
Bambi,50898
uterine hyperstimulation,50898
ganglioneuroblastoma,50898
Monit,50898
Micafungin,50898
Ugt1a1,50898
GRM1,50898
glucose-6-phosphate isomerase,50898
Lieshout,50898
F-34,50898
disruptive selection,50898
Emberiza,50898
bendiocarb,50898
Cordillera Blanca,50898
SLC1A2,50898
ACE inhibitor,50898
disinfectant,50898
FAAH inhibitor,50898
exsufflation,50898
bronchioles,50898
Marsupialia,50898
de-epoxidation,50898
Rimac River,50898
SEGA,50898
pest control,50898
Fgf1,50898
Secukinumab,50898
ganglioneuroma,50898
Knockdown resistance,50898
Veenendaal,50898
oxazepam,50898
organ support,50898
neurogenic bladder,50898
immunoglobulin class switching,50898
imatinib mesylate,50898
NKp46,50898
leaf miner,50898
CINC,50898
extrasystoles,50898
All rights reversed,50898
Attentional bias,50898
Calvert,50898
GATA-1,50898
xanthophyll cycle,50898
proarrhythmic,50898
Lumefantrine,50898
OMC-1,50898
angiopoietins,50898
N95,50898
GNAI2,50898
URB597,50898
mGluR3,50898
Thyroid disease,50898
illuviation,50898
Pharmacogenetics,50898
cell cycle protein,50898
marine fungi,50898
heterodimerize,50898
gravitational redshift,50898
salivary gland pathology,50898
transcription factor binding site,50898
Itga6,50898
thoracic spinal cord,50898
herpes zoster,50898
efferent pathways,50898
Bilateral symmetry,50898
Plasmalogen,50898
Ccl2,50898
deoxynivalenol,50898
lethal B,50898
PI3K inhibitor,50898
EPHB4,50898
NMDA-receptor,50898
transrepression,50898
Slc7a1,50898
ganglionic eminence,50898
TGF beta 3,50898
fructose-bisphosphate aldolase,50898
Slc7a7,50898
halotolerance,50898
GRB 971214,50898
microadenomas,50898
Nestin,50898
periostin,50898
anaphylactic,50898
Artemether/lumefantrine,50898
PUNS,50898
mixed tumor,50898
Physiological Society,50898
cholangiocyte,50898
PARP inhibition,50898
chromaffin,50898
TSLP,50898
lineage sorting,50898
Adjuvant therapy,50898
DU145,50898
Glycolysis,50898
Induced hypothermia,50898
end-stage pulmonary,50898
Vasodilation,50898
extrafloral nectaries,50898
continuous recordings,50898
vanadium bromoperoxidase,50898
Ccl11,50898
Social Democratic Party,50898
reduced C*-algebra,50898
Armadillo,50898
boogeyman,50898
South London,50898
rent regulation,50898
Keck I,50898
submillimeter,50898
charismatic species,50898
Sendai,50898
terbinafine,50898
cashew nuts,50898
sound localization,50898
General Practice Research Database,50898
Taraxacum,50898
Optical coherence tomography,50898
ablate,50898
one-night stand,50898
Arsacid,50898
Russian Sign Language,50898
Hainan,50898
Abcb4,50898
carnidazole,50898
MPC,50898
music cognition,50898
Aegypius monachus,50898
rolling circle amplification,50898
demand characteristics,50898
soy protein,50898
European Works Council,50898
zero-sum game,50898
flavour changing,50898
Axel Honneth,50898
Scruggs,50898
Helmholtz resonator,50898
Klebsormidium,50898
Scheveningen,50898
Smad4,50898
UK pound,50898
Berne Convention,50898
White adipose tissue,50898
finite-element method,50898
No control,50898
thermal plasma,50898
astroglial cell,50898
S-8,50898
TRYTON,50898
laboratory medicine,50898
optoelectronics,50898
topological field theory,50898
online privacy,50898
Confucian,50898
biomedical imaging,50898
Gekkonidae,50898
Health 21,50898
tenseness,50898
COIL,50898
discrete element,50898
impulse control disorder,50898
shared custody,50898
blockbusting,50898
transverse thrust,50898
surrogacy,50898
loc,50898
structured writing,50898
R-score,50898
Gf-Gc theory,50898
Occupy movement,50898
Wide Field Camera 3,50898
Bellini,50898
protonated forms,50898
Aceria,50898
lysogeny,50898
metalation,50898
greenbug,50898
Gura,50898
conjugate variable,50898
Dreyer,50898
Hypoplasia,50898
Landsat,50898
Marcel Schwob,50898
webometrics,50898
Tevatron collider,50898
heart disorders,50898
role-playing,50898
fast radio burst,50898
Edward Said,50898
Latvia,50898
formally smooth,50898
misdemeanor,50898
Marle,50898
diabetic nephropathies,50898
ALPL,50898
Gough,50898
Casimir element,50898
child model,50898
continuum mechanics,50898
ETV1,50898
toric,50898
radiation protection,50898
Bicarbonate,50898
Thysanoptera,50898
P75,50898
hidden places,50898
Felix Guattari,50898
self-exchange,50898
butanethiol,50898
Augustinian,50898
neoplastic process,50898
cookware,50898
OPA1,50898
Millepora,50898
Arequipa,50898
splenic artery,50898
QEEG,50898
HBF4,50898
road debris,50898
sequential Monte Carlo,50898
Calorimeter,50898
real algebraic geometry,50898
documentary photography,50898
lacrimal sac,50898
preventive medical care,50898
hermatypic,50898
conifold,50898
zygospore,50898
nuclear reaction analysis,50898
ND4L,50898
carbon steel,50898
Bogidiellidae,50898
H band,50898
quadratic residue,50898
amastatin,50898
distal myopathy,50898
bullous keratopathy,50898
Muleba District,50898
equivariant cohomology,50898
menstrual period,50898
Marantz,50898
paralytic ileus,50898
Worcester,50898
planetary formation,50898
South African Astronomical Observatory,50898
Northumberland,50898
Slotervaart,50898
Northern Province,50898
pairwise differences,50898
Epistaxis,50898
shy behavior,50898
Nzoia,50898
population balance equation,50898
Human lung,50898
Structural Damage,50898
Prostaglandin E2,50898
cosmic X-ray background,50898
electronic literature,50898
bone bed,50898
acute respiratory infection,50898
power steering,50898
power transformation,50898
Visceral leishmaniasis,50898
thalamic region,50898
HIV-positive people,50898
microsomal triglyceride transfer protein,50898
Perca fluviatilis,50898
relativistic Doppler,50898
penology,50898
geometrids,50898
This window,50898
Crackdown,50898
Cyclic nucleotide,50898
Fiji Islands,50898
food records,50898
heterotrimeric G-protein,50898
exact functor,50898
Symbolic Convergence Theory,50898
linear simultaneous equations,50898
FASB,50898
Stochastic Resonance,50898
tungsten diselenide,50898
adaptive design,50898
Java Sea,50898
postanesthesia care unit,50898
Midwife toad,50898
freeware,50898
cotrimoxazole,50898
shear thickening,50898
streptococcal infection,50898
reference analysis,50898
Rogoff,50898
Bacterial Artificial Chromosome,50898
Phoca,50898
Donald Barthelme,50898
bulk polymerization,50898
Epigenome,50898
hand washing,50898
Metabolically healthy obesity,50898
Swiss Light Source,50898
hassle,50898
Human Immunodeficiency Virus,50898
GRB 980425,50898
GCVS,50898
scientific theory,50898
thermotherapy,50898
Assisted reproduction,50898
Phacoemulsification,50898
lipid storage disorder,50898
proline dehydrogenase,50898
Juss.,50898
diehard,50898
chanson,50898
sub-cellular processes,50898
National Museum,50898
mixture distribution,50898
Spectro-Polarimetric High-contrast Exoplanet REsearch,50898
The collective,50898
embryo donation,50898
isonicotinamide,50898
SPAR,50898
MDT,50898
mucosal tissue,50898
Cloud computing,50898
Jackson integral,50898
Kenyatta National Hospital,50898
process variable,50898
combinatorial number theory,50898
bedevil,50898
tympanum,50898
anti-globalization,50898
decapod,50898
intensive care medicine,50898
tachyon condensation,50898
evaluation strategies,50898
Quinine,50898
wiggle-matching,50898
Dutch Revolt,50898
5-aminolevulinic acid,50898
Multivariate normal,50898
human-robot interaction,50898
Landau-Ginzburg theory,50898
spectral imaging,50898
chylomicronemia,50898
destination therapy,50898
selective adsorption,50898
postnasal drip,50898
Blastocystis hominis,50898
generation gap,50898
Baroque,50898
AdS/CFT,50898
wicked problems,50898
trinitrate,50898
benzoquinone,50898
media framing,50898
Jack Goldstone,50898
graduate tax,50898
Felder,50898
abelian varieties,50898
cinematic trope,50898
endothelium-derived hyperpolarizing factor,50898
contraband,50898
action-angle variables,50898
Hydroxyl,50898
mecillinam,50898
TAKI,50898
Blue Mountains,50898
Infrared imaging,50898
media mix,50898
frame rate,50898
transit-oriented,50898
Gaussian noise,50898
Mira variable,50898
South Eastern Europe,50898
Hermitian matrix,50898
N-acetylglutamate synthase,50898
language disorder,50898
Bison priscus,50898
cardinal utility,50898
supramolecular assembly,50898
multi-threaded,50898
Voous,50898
New York City,50898
African-American,50898
Wilson loops,50898
Arras,50898
polyradiculoneuropathy,50898
anisyl,50898
Fujian,50898
principal series,50898
Marsilio Ficino,50898
Parry,50898
Selberg,50898
divergent selection,50898
Ophiostoma,50898
Optical path length,50898
EMR1,50898
order-theoretic,50898
anti-obesity drug,50898
Zhongshan,50898
portfolio investment,50898
global symmetry,50898
1 time,50898
interactive fiction,50898
Posterior fossa,50898
Tetranychus,50898
windmill,50898
CTIO,50898
nucleated red blood cells,50898
stem-cell transplant,50898
Spongia,50898
kilonova,50898
earned media,50898
V-band,50898
Heyting algebra,50898
European refugee crisis,50898
ICD-10 clinical modification,50898
Fekete,50898
flow cytometer,50898
global news,50898
tree model,50898
Delta cells,50898
D3 receptor,50898
NR4A2,50898
World Wide Web,50898
hybrid coronary revascularization,50898
starburst region,50898
skin ulcer,50898
irrep,50898
aut,50898
endodontically-treated,50898
light cone,50898
desmoglein-1,50898
Indian Ocean islands,50898
introgressive hybridization,50898
glutamatergic system,50898
FGF1,50898
corticogenesis,50898
Abcg8,50898
Otx2,50898
agroforestry,50898
cellular adhesion molecule,50898
heterochromia,50898
Ascophyllum nodosum,50898
lipopolysaccharide-binding protein,50898
Wnt1,50898
Simplified Chinese,50898
[1A,50898
acetyl chloride,50898
TS3,50898
Clca3,50898
BIAS,50898
Good clinical practice,50898
amino-acid metabolism,50898
NIDD,50898
Wnt-signaling,50898
distal extremity,50898
Smad1,50898
lipid transfer proteins,50898
A23,50898
UBM,50898
carotid sinus,50898
lake records,50898
neuronal soma,50898
mesangium,50898
biliary system,50898
Il13,50898
intra-ocular pressure,50898
stop-loss order,50898
IDIs,50898
BMI-for-age,50898
system-on-a-chip,50898
probability space,50898
X-linked severe combined immunodeficiency,50898
radiation risk,50898
bosonic string,50898
diacylglycerol kinase,50898
Volga-Ural region,50898
lipases,50898
No Control,50898
gastroesophageal junction,50898
branching factor,50898
extrastriate body area,50898
artisanal mining,50898
Sander lucioperca,50898
soft drugs,50898
grade point average,50898
homography,50898
albuterol,50898
cleavage stage,50898
Lax representation,50898
enantiopurity,50898
episodic memories,50898
Gibbs energy,50898
cuneiform,50898
affect theory,50898
Tetramethylammonium,50898
hypergeometric identity,50898
Mekong River,50898
dominant strategy,50898
CT Angiography,50898
chemical pump,50898
specific absorption rate,50898
Palinura,50898
biophotonics,50898
purse seine,50898
clinical nurse specialist,50898
interest point detection,50898
DART,50898
Candidatus,50898
hydroboration,50898
major triad,50898
cerebro,50898
spondylometaphyseal dysplasia,50898
benign tumour,50898
seminiferous,50898
marine organism,50898
Vies imaginaires,50898
tort law,50898
SEL,50898
rotational invariance,50898
cycloxygenase,50898
fractal dimension,50898
PI3K/AKT,50898
Islamophobia,50898
Dutch orthography,50898
Industrial process,50898
Kagera,50898
embryology,50898
formalist,50898
empties,50898
Thm,50898
Health Insurance Authority,50898
complementary series,50898
Chebyshev polynomials,50898
Moluccas,50898
BFI,50898
mental content,50898
genetic transformation,50898
expert RA,50898
Jacobi theta functions,50898
benign hereditary chorea,50898
emergency contraceptive,50898
Aust,50898
Hemizygous,50898
Blaye,50898
SPECS,50898
petrochemical industry,50898
superconvergence,50898
NRA,50898
DLTS,50898
clopen,50898
ephemerides,50898
heuristic evaluation,50898
junzi,50898
PWR,50898
Habermas,50898
two-sphere,50898
strict selection,50898
somatosensory system,50898
partonomy,50898
cantons,50898
lacunas,50898
Willamette Valley,50898
topiramate,50898
competitive learning,50898
fundamental mode,50898
Petri nets,50898
Sympathetic innervation,50898
language model,50898
iPAD,50898
random forests,50898
inertial frame,50898
epistemic community,50898
magnetic lattice,50898
Dutch disease,50898
representationalism,50898
Paradiso,50898
"September 11, 2001",50898
Strassen,50898
fluorescence cross-correlation spectroscopy,50898
partial differential equation,50898
NTU,50898
cryogenic detectors,50898
orientalism,50898
flashlamp,50898
esotericism,50898
Upjohn dihydroxylation,50898
Copolymerization,50898
Josephson junction,50898
monolith,50898
tree structure,50898
posterior descending artery,50898
teleportation,50898
Seyfert nucleus,50898
Aminopeptidases,50898
IC 434,50898
grid systems,50898
medial collateral ligament,50898
roton,50898
vasorelaxant,50898
redlining,50898
thick description,50898
Sri Lanka Navy,50898
Tuberculin,50898
yeast artificial chromosome,50898
STAR*D,50898
Robert Fruin,50898
Portal vein,50898
karyotypically,50898
Groninger,50898
Geom,50898
Anticholinergic,50898
minimal realization,50898
peer education,50898
controlled natural language,50898
Agonist,50898
Natriuretic peptide,50898
hand-eye coordination,50898
cholestatic liver disease,50898
methimazole,50898
sluice,50898
Thripidae,50898
Lefschetz,50898
Thapsigargin,50898
homo economicus,50898
gene redundancy,50898
Borel measure,50898
Victor Tausk,50898
hypermultiplets,50898
structural markers,50898
gadolinium-157,50898
Bob Dole,50898
public apology,50898
vital center,50898
gambling disorder,50898
class analysis,50898
iconic memory,50898
internalized homophobia,50898
search engine,50898
Stumpffia,50898
symbolic capital,50898
dodo,50898
encyclopaedia,50898
Alopochen,50898
current clamp,50898
Xinglong Station,50898
Global Biodiversity Information Facility,50898
SNV,50898
Annemarie Mol,50898
positive affectivity,50898
JETP,50898
GaP,50898
euchromatic,50898
Animal study,50898
Mannich,50898
A therapy,50898
Albanians,50898
vlog,50898
Clinical Trials Unit,50898
Cdh1,50898
Wolfsburg,50898
pay-as-you-go,50898
integral equations,50898
Ovid,50898
SF6,50898
neural net,50898
sternocleidomastoid,50898
European Ombudsman,50898
abstract syntax trees,50898
Phoca hispida,50898
sensory neuron,50898
pesticide application,50898
universal quantification,50898
Kirillov,50898
LED lamp,50898
Gaussian function,50898
thick smear,50898
Hayashi track,50898
reductive group,50898
RF shielding,50898
wine cellar,50898
Allison,50898
surgical implant,50898
consumer affairs,50898
seagrass,50898
cyclic voltammograms,50898
good doctor,50898
Muhimbili University,50898
Askey-Wilson polynomial,50898
Starobinsky inflation,50898
Arles,50898
intensional,50898
ceria,50898
Motorola,50898
pegylated interferon,50898
adrenomedullin,50898
subject indexing,50898
Roux-en-Y gastric bypass surgery,50898
gauge freedom,50898
science fiction film,50898
cross-spectrum,50898
photomultiplier tube,50898
Psychol Bull,50898
Support Vector Machines,50898
venereal disease,50898
primary standard,50898
Cohen Committee,50898
parallel evolution,50898
Haemaphysalis,50898
near-field,50898
Menasseh ben Israel,50898
metamorphose,50898
Homunculus nebula,50898
Westerbork,50898
ICD-10-CM,50898
light rail,50898
Cognitive Behavior Therapy,50898
fitness landscape,50898
Laplace-Stieltjes transform,50898
Arab Spring,50898
Boundiali,50898
linear energy transfer,50898
intermittent preventive therapy,50898
IPOS,50898
efficient market hypothesis,50898
exculpatory evidence,50898
infrared microscopy,50898
schizophreniform disorder,50898
medical necessity,50898
radiant exposure,50898
sedimentary rock,50898
slow loris,50898
Lund,50898
pastiche,50898
Wang-Landau,50898
dynamical friction,50898
Knowledge Management,50898
IFORS,50898
Population attributable risk,50898
Marxist philosophy,50898
Iowa gambling task,50898
contrapuntal,50898
stress energy tensor,50898
man-at-arms,50898
RSL,50898
humidifier,50898
global symmetries,50898
Orthodoxy,50898
error-correcting codes,50898
photoacoustic spectroscopy,50898
decoherence,50898
factitious disorders,50898
Lake Ihotry,50898
poser,50898
public equity,50898
Brong Ahafo,50898
insectivorous,50898
Noggin,50898
drug-drug interaction,50898
Cyclosporine A,50898
wales,50898
R70,50898
Bogoliubov,50898
microregions,50898
pentamethylcyclopentadienyl,50898
family 1,50898
systemic agents,50898
Gleason Score,50898
epistemic virtues,50898
Cylindrospermopsis raciborskii,50898
existential quantification,50898
Stalinist ideology,50898
Eulerian,50898
skin atrophy,50898
Hysterosalpingography,50898
surrogate endpoints,50898
Leuven,50898
Guanxi,50898
zygomaticus major,50898
Transylvania,50898
photoelectron photoion coincidence spectroscopy,50898
Soil biodiversity,50898
Nephrostomy,50898
Northern Region,50898
kaut,50898
Knowledge Network,50898
Psychometrika,50898
living polymerization,50898
Wayland,50898
Roux-en-Y,50898
ozonation,50898
Terry Jones,50898
Left ventricle,50898
mass renormalization,50898
IRM,50898
colliding-wind binary,50898
chlorophenols,50898
generalized inverse,50898
stochastic resonance,50898
Nycticebus,50898
tumourigenic,50898
parthenogenetically,50898
physical chemist,50898
hookworm infection,50898
Nonsteroidal anti-inflammatory drugs,50898
diamondback moth,50898
Lost Highway,50898
FLOWERING LOCUS C,50898
swine flu,50898
forced marriage,50898
Markov Chain Monte Carlo,50898
Guillaume Groen van Prinsterer,50898
multivariate normal distribution,50898
psychological test,50898
Ensete ventricosum,50898
anti-communism,50898
Sherman,50898
glycerol ether,50898
Aberdeen,50898
Cognitive bias modification,50898
OH/IR star,50898
coregulators,50898
Seminiferous tubules,50898
Bruno Latour,50898
forced exposure,50898
rulemaking,50898
consumer protection,50898
Geriatrics,50898
Lewisite,50898
logistic family,50898
selective school,50898
Raphus,50898
Population density,50898
time-of-flight mass spectrometers,50898
Anomura,50898
Polarimeter,50898
synaptic cleft,50898
Adult ADHD Self-report Scale,50898
Neoseiulus cucumeris,50898
ecological restoration,50898
interleukin-18,50898
refractory elements,50898
Cherenkov Telescope Array,50898
Swiss National Bank,50898
UCAC4,50898
Stanislav Vinaver,50898
bulk carrier,50898
orthohepadnavirus,50898
gnathopod,50898
traditional medicine,50898
Pikeperch,50898
advertisement call,50898
particle statistics,50898
essential spectrum,50898
primer binding site,50898
parechovirus,50898
d-block,50898
phosphoinositides,50898
rock-paper-scissors,50898
defensive medicine,50898
Image registration,50898
rotamers,50898
Drosophila subobscura,50898
Indian Fijians,50898
central cordillera,50898
Five towns,50898
gravitational energy,50898
Tangier,50898
pre-main-sequence,50898
IC 1613,50898
animosity,50898
thermal pressure,50898
Fluid balance,50898
nonadiabatic couplings,50898
peripheral chemoreceptor,50898
pyruvate carboxylase,50898
G7,50898
bcl2,50898
hypophosphatasia,50898
Fairtrade,50898
18-electron,50898
Stylissa carteri,50898
homoskedasticity,50898
Sarcoma,50898
offshore zone,50898
otolaryngological,50898
keystroke logging,50898
Temperley-Lieb algebra,50898
Diffusing capacity,50898
Cardiovascular Magnetic Resonance Imaging,50898
branched polymer,50898
boundary field,50898
Ca2+/calmodulin-dependent protein kinase II,50898
cauterization,50898
multiply connected,50898
Dewey Decimal Classification,50898
unpolarized light,50898
ilo,50898
animal communication,50898
Entrez,50898
Brera,50898
Gluino,50898
character formula,50898
mass appeal,50898
Barbara,50898
Hepatitis C Virus,50898
Anderson impurity model,50898
Chern-Simons gauge theories,50898
stable map,50898
Smiths Detection,50898
hydrosphere,50898
usability engineering,50898
pulmonary endarterectomy (PEA),50898
fold bifurcation,50898
Wess-Zumino-Witten model,50898
Laos,50898
GRB 060218,50898
Median nerve,50898
Castellan,50898
neutron source,50898
Lycaenidae,50898
capnophiles,50898
Indonesian Red Cross,50898
spiral density wave,50898
chiral symmetry,50898
antenna temperature,50898
Scientometrics,50898
underspecification,50898
computational astrophysics,50898
U6,50898
thermoplastic,50898
Altruism,50898
speculative execution,50898
plasmalemmal,50898
trypanosomatid,50898
octave,50898
Resuscitation Council,50898
ITGA6,50898
signal noise,50898
Fetal heart rate,50898
Ramsar,50898
superantigens,50898
post-industrial,50898
African studies,50898
reverberatory,50898
basidiomycetous,50898
demagnetizing field,50898
Corpus Hermeticum,50898
investment banking,50898
aggression replacement training,50898
Beveridge curve,50898
glycine receptor,50898
absorption refrigerator,50898
isometry,50898
Portland,50898
trend-following,50898
Psychological Methods,50898
strict scrutiny,50898
level I trauma center,50898
Liberalism,50898
consultation-liaison,50898
front velocity,50898
Cell Res.,50898
shallow donor,50898
agency costs,50898
gigantism,50898
cheshire,50898
dichlorodiphenyltrichloroethane,50898
Cahn-Hilliard equation,50898
Disgust,50898
shipwreck,50898
Otosclerosis,50898
Macha,50898
Durian,50898
heavy tails,50898
The quotations,50898
group algebra,50898
endocardial fibroelastosis,50898
parameterized complexity,50898
Tetrodotoxin,50898
Kwahu,50898
Curie-Weiss,50898
Beta blockers,50898
Barratt Impulsivity Scale,50898
Insecticide,50898
harp,50898
homotopy quotient,50898
sound velocities,50898
convertibility,50898
Bart,50898
Serious gaming,50898
microcontroller,50898
motion estimation,50898
Microtus,50898
UNDP,50898
M38,50898
aegyptiaca,50898
Wittgenstein,50898
neuroradiology,50898
Howard,50898
GLB1,50898
phototube,50898
Veurne,50898
Planck scale,50898
Human Development Index,50898
Oxidative addition,50898
benzyl chloride,50898
double star,50898
Jin,50898
X-ray detector,50898
concatemers,50898
negative approach,50898
sociological jurisprudence,50898
barium swallow,50898
AVERROES,50898
air shower,50898
cardiac ventricles,50898
National Biodiversity Network,50898
Gricean,50898
asymptotic efficiency,50898
private rented sector,50898
syllabic nasal,50898
The scaffold,50898
lichenification,50898
sexually-dimorphic,50898
S-nitrosoglutathione,50898
exopodite,50898
limit equilibrium,50898
FRNs,50898
Pelger-Huet anomaly,50898
N-body simulation,50898
faceted search,50898
anorectal angle,50898
anti-fascist,50898
start today,50898
pyrithione,50898
made-to-measure,50898
Major Depressive Episode,50898
Kempenland,50898
Dutch-Iranian,50898
DYSF,50898
ISL1,50898
Riemann tensor,50898
phytolith,50898
Gastric Bypass,50898
Cochrane library,50898
electromagnetic mass,50898
circadian oscillator,50898
sublittoral,50898
fundamental group,50898
germ cell tumour,50898
argonaute,50898
Clin Genet,50898
CIELAB,50898
Communist Manifesto,50898
Clinical Psychology,50898
ultimate tensile strength,50898
paper blood,50898
West-Flanders,50898
cheese ripening,50898
deliquescence,50898
Iwahori-Hecke algebra,50898
data-mining,50898
social salience,50898
binges,50898
mnm,50898
semianalytic,50898
chancellor,50898
drachma,50898
Fusarium graminearum,50898
monoamniotic twins,50898
Argus,50898
familywise error rate,50898
lexicalisation,50898
Chain termination,50898
axial-flow,50898
seminiferous tubule,50898
coNP-complete,50898
AstraZeneca Pharmaceuticals,50898
blind spot,50898
ultrasound biomicroscopy,50898
Lake Bangweulu,50898
A 43,50898
Artemisinin,50898
celestial pole,50898
Mitogen-activated protein kinase,50898
minor merger,50898
ethmoid sinus,50898
dragon,50898
expectation-maximization (EM) algorithm,50898
SGLT2,50898
Peromyscus,50898
ATAC-seq,50898
occultation,50898
pharmaceutical policy,50898
Phillips curve,50898
Gastroparesis,50898
substitution model,50898
phylogenetics,50898
auditory system,50898
Nash-Williams,50898
possessum,50898
DH domain,50898
Milne,50898
beta-Carotene,50898
fossorial,50898
milk protein concentrate,50898
Inga,50898
dynamic memory,50898
extant taxa,50898
Quran,50898
Kunstkamera,50898
magnetic-activated cell sorting,50898
external anal sphincter,50898
phlebitis,50898
focal plane,50898
working capital,50898
transverse mass,50898
north-west Europe,50898
Matisse,50898
starburst galaxy,50898
Tcf family,50898
activity based costing,50898
instruction-level parallelism,50898
neighbour-joining,50898
basic hypergeometric series,50898
lees,50898
dual pair,50898
cystostomy,50898
Human Mortality Database,50898
cartography,50898
Cyclopentadiene,50898
teff,50898
Pannekoek,50898
baryonic matter,50898
Pasadena,50898
clathrin,50898
Emergency Unit,50898
Oasis,50898
viscoelastic foam,50898
XXV,50898
solar fuels,50898
cholestatic pruritus,50898
immersed boundary method,50898
Cross-validation,50898
Alain Badiou,50898
GLRA1,50898
intermediate nucleus,50898
inflaton field,50898
mean-free-path,50898
abruptio placentae,50898
hypermobile,50898
Batalin-Vilkovisky,50898
Prenanthes,50898
Internet service provider,50898
corrugator supercilii,50898
t-probe,50898
Boully,50898
Public Health Service,50898
memoryless,50898
Gaussian hypergeometric function,50898
Plutella xylostella,50898
Eastern Rwanda,50898
semantic priming,50898
historical linguist,50898
Deutsche Bank,50898
D07,50898
computational fluid dynamics (CFD),50898
Purchasing Power Parity,50898
vinylidene fluoride,50898
Kenner,50898
Pluvialis dominica,50898
Solanaceae,50898
scale space,50898
Coulomb blockade,50898
behaviourism,50898
Zackenberg,50898
Madeira Island,50898
epiretinal membrane,50898
Kirman,50898
electoral wards,50898
pergolide,50898
convex analysis,50898
school-to-work transition,50898
GIAT,50898
Paisley,50898
foodborne illness,50898
symplectic group,50898
Phleum,50898
funnel plot,50898
intermediate jacobian,50898
transnational history,50898
Kantianism,50898
turbidimetry,50898
Australia Telescope Compact Array,50898
permanent magnet,50898
Kullback-Leibler divergence,50898
Case study,50898
Jacobian variety,50898
superior temporal sulcus,50898
Theosophy,50898
Family 1,50898
halothane,50898
subcommunities,50898
monobenzone,50898
Aluminum oxide,50898
lithotriptor,50898
Stelletta,50898
angiotensin-converting enzyme inhibitors,50898
ultraluminous infrared galaxies,50898
log-linear modeling,50898
antonym,50898
orthonormal basis,50898
hemoperitoneum,50898
Mulholland Drive,50898
Mesopotamia,50898
suspended animation,50898
Don Ross,50898
The drift,50898
Romanian language,50898
cytochrome P450-3A4,50898
p90,50898
Negative reinforcement,50898
ship-in-a-bottle,50898
embolized,50898
academic publishing,50898
formamides,50898
exanthema,50898
Quetelet,50898
disability-adjusted life years,50898
broadband spectral,50898
interventional cardiologist,50898
parasympathetic innervation,50898
ecological network,50898
Wallace,50898
linear problem,50898
orientable,50898
medium-chain triglycerides,50898
Ambrose,50898
clinical epidemiology,50898
Zurich,50898
coset construction,50898
granular material,50898
Rhizopus microsporus,50898
Hand strength,50898
Peel,50898
physiologist,50898
Indo-1,50898
bacteriocide,50898
Legendre function,50898
p-mode,50898
XXVI,50898
Cirrus,50898
Ermelo,50898
Rhodobacter capsulatus,50898
VFS,50898
Lagrangian point,50898
Prince,50898
mucocutaneous leishmaniasis,50898
quantitative susceptibility mapping,50898
plankton net,50898
climbazole,50898
simple random sampling,50898
cubic threefold,50898
Stalin,50898
arrythmia,50898
demographic stochasticity,50898
JASIST,50898
forkhead box,50898
hemihypertrophy,50898
lexical overlap,50898
chlorine gas,50898
Lavagna,50898
highpass,50898
tree health,50898
mesophilic,50898
Berden,50898
Neonatal cholestasis,50898
individualist,50898
perilipin 2,50898
Pati,50898
antonymy,50898
Keuper,50898
mass defect,50898
numerical optimization,50898
tarantula,50898
general list,50898
chromaticity space,50898
Scratching,50898
Emma Hardinge Britten,50898
implosion,50898
"Wilmington, DE",50898
Generalized Anxiety Disorder,50898
V-100,50898
Fredholm,50898
HRTEM,50898
filipin,50898
Weyl anomaly,50898
enolate,50898
fecal leakage,50898
Clinical Genetics,50898
mixed language,50898
Skeletonema,50898
explicit memory,50898
Brazil nut,50898
historical musicology,50898
International Cancer Genome Consortium,50898
Tethya,50898
orthogonal wavelet,50898
Mott insulators,50898
CP2,50898
Scotinomys,50898
PFNA,50898
"5,6-dihydrouracil",50898
cruise control,50898
mechanical heart valve,50898
surfactant protein C,50898
Halichoerus,50898
Nicotiana langsdorffii,50898
non-representational theory,50898
urethral sphincter,50898
Urgench,50898
bile pigments,50898
Illusory correlation,50898
germ-cell cancer,50898
superluminal,50898
rhinorrhea,50898
overdetermined,50898
Emotion recognition,50898
Blantyre,50898
Doppler shift,50898
Po Valley,50898
2-nitrophenol,50898
inverse Compton,50898
modular invariance,50898
philosophical discourses,50898
loose connective tissue,50898
Submillimeter Wave Astronomy Satellite,50898
risk adjusted mortality rate,50898
capacitation,50898
maximum parsimony,50898
PSPAcE-complete,50898
Logarithm,50898
False discovery rate,50898
"phosphatidylinositol 4,5-bisphosphate",50898
Nitration,50898
hedgerow,50898
eulittoral zone,50898
switching Kalman filter,50898
Red Lists,50898
linear basis,50898
Gevrey,50898
RRAT,50898
Eldoret,50898
retinal tear,50898
JPMorgan Chase,50898
PEX2,50898
T-duality,50898
direct air,50898
Ascospore,50898
grammaticalized,50898
hypersaline,50898
Jucar,50898
Lorenz attractor,50898
broad-spectrum antibiotic,50898
hyperphenylalaninemia,50898
Amiodarone,50898
Yponomeutidae,50898
adult attachment,50898
saving behaviour,50898
convolved,50898
vitreoretinal surgery,50898
Oa,50898
Theil,50898
Auvers-sur-Oise,50898
Fluorescence spectroscopy,50898
very-low-calorie diet,50898
NDUFS7,50898
primary forest,50898
diagnosis codes,50898
Hungarians,50898
CPT invariance,50898
consumer culture,50898
Forensic Medicine,50898
minimal supersymmetric standard model,50898
Jack,50898
driving-point impedance,50898
galaxy group,50898
Actitis,50898
Gierke,50898
accounting scholarship,50898
coxa,50898
Maghrebi,50898
photospheric temperatures,50898
electoral ward,50898
baby boomers,50898
anaesthesia machine,50898
Landau-Ramanujan constant,50898
disulfide bridges,50898
F-5,50898
Jacksonville,50898
centrifugal pump,50898
skin reactivity,50898
The implant,50898
syncretism,50898
American Sign Language,50898
Doppler broadening,50898
RLCA,50898
in-order execution,50898
endogamous,50898
Jacobi polynomial,50898
GRAIN,50898
ChIP-seq,50898
panel data models,50898
Kiparsky,50898
Shanxi University,50898
Neurostimulation,50898
I-d,50898
spherical functions,50898
argumentation framework,50898
Pyrolysis,50898
dispersal vector,50898
total conversion,50898
Tas.,50898
B-cell Activating Factor,50898
bridging carbonyl,50898
respiratory medicine,50898
9/11 attacks,50898
sardine,50898
Huygens,50898
Georg Simmel,50898
Cutaneous leishmaniasis,50898
deliberative planning,50898
olfactory cortex,50898
Pimander,50898
social quality,50898
feminist movement,50898
Linz,50898
Cucurbitaceae,50898
salsa music,50898
Waukesha,50898
Clebsch-Gordan coefficients,50898
K3 surface,50898
rhabdomyolysis,50898
Five eyes,50898
nematocysts,50898
territoriality principle,50898
full frequency,50898
nonsteroidal anti-inflammatory drug,50898
Revascularization,50898
liposarcoma,50898
Bladel,50898
"PI(4,5)P2",50898
mucormycosis,50898
warm dark matter,50898
combined immunodeficiencies,50898
von Mises distribution,50898
Dole,50898
anastomosing,50898
autosomal co-dominant,50898
de jure,50898
laser photocoagulation,50898
perfective,50898
lexical choice,50898
Walsh diagrams,50898
tautomeric equilibrium,50898
head-mounted display,50898
Karoo Array Telescope,50898
oviduct,50898
Blackwell Publishing,50898
Delhi,50898
high-level programming language,50898
Spizaetus bartelsi,50898
strong gravity,50898
CDH5,50898
left heart,50898
global map,50898
refractory periods,50898
Osteolysis,50898
NVIVO,50898
Volatile organic compounds,50898
V band,50898
sinewave,50898
lethargy,50898
ANTH,50898
L-2 norm,50898
limb development,50898
Phenylalanine hydroxylase,50898
gay rights,50898
random matrix theory,50898
levator ani,50898
spin representation,50898
catastrophic interference,50898
geminate consonant,50898
Phalaropus fulicarius,50898
Light curve,50898
chalcone isomerase,50898
Mucor,50898
Propionyl-CoA,50898
pharmacy records,50898
tricycle,50898
harm principle,50898
psychological types,50898
total organic carbon,50898
neutrophile,50898
stearyl,50898
DAMA/LIBRA,50898
flip angle,50898
Amphisphaerella,50898
microbeam,50898
TTF1,50898
Indonesian history,50898
Sufi,50898
ultraviolet divergence,50898
log-linear model,50898
Amerindians,50898
Erectile dysfunction,50898
Healthy eating,50898
WSe2,50898
frozen shoulder,50898
Ingroup,50898
long-tailed macaque,50898
Pyridoxal phosphate,50898
FoxO3a,50898
deep orthographies,50898
vocational school,50898
macroeconomic fundamentals,50898
animated image,50898
indoramin,50898
Nardis,50898
Infrared spectra,50898
FIQ,50898
Ohm,50898
RAS/MAPK,50898
Dannenberg,50898
CD79b,50898
revamp,50898
soda lakes,50898
fetal haemoglobin,50898
Maunder,50898
free-float,50898
solar variability,50898
spoken word,50898
London clinic,50898
process modelling,50898
colubrid,50898
Colour vision,50898
glueball,50898
sodium stibogluconate,50898
New Keynesian,50898
melamine,50898
common bottlenose dolphin,50898
distributive justice,50898
Westerlund 1,50898
concurrency,50898
KAM theorem,50898
endomicroscopy,50898
biliary disease,50898
Xenopus tropicalis,50898
black body,50898
language typology,50898
dwarf galaxies,50898
unidentified reading frame,50898
spectropolarimeter,50898
superior speed,50898
interface chemistry,50898
tropical grassland,50898
ravage,50898
ischium,50898
National Weather Service,50898
global optimum,50898
post-growth,50898
Babylon,50898
Dusseldorp,50898
Histosols,50898
Candidate gene,50898
Leiden Open Variation database,50898
sequence space,50898
viral culture,50898
translational symmetry,50898
Ghent University Hospital,50898
switched ON,50898
Clinical risk,50898
ARPES,50898
Paschal,50898
sterling price,50898
BRENDA,50898
barium meal,50898
Mayo Clinic,50898
Iberiotoxin,50898
ossicular chain,50898
jugular venous pressure,50898
Erignathus,50898
Rectal cancer,50898
arcmin,50898
cupric chloride,50898
biophysicist,50898
Genetic Algorithm,50898
infinite series,50898
refrigeration cycle,50898
immunochemistry,50898
Methoxamine,50898
Dephosphorylation,50898
measuring instrument,50898
NBEAL2,50898
molecular crowding,50898
E46,50898
Cambrian,50898
HCV protease inhibitor,50898
MUNC18,50898
Mount Kinabalu,50898
dexamphetamine,50898
high standard,50898
San Antonio,50898
isoeugenol,50898
isis,50898
phase 3 clinical trial,50898
Bimoba,50898
hypertrophic pyloric stenosis,50898
Adolescent pregnancy,50898
methyllithium,50898
male reproductive system,50898
memory bias,50898
standard scoring system,50898
Acropora millepora,50898
open label extension,50898
Lucy,50898
cold pack,50898
soft photon,50898
Hyperphosphorylation,50898
fusion peptide,50898
tryptophan hydroxylase,50898
Polaris,50898
AP180,50898
paramyxovirus,50898
energy payback,50898
partner notification,50898
kga,50898
Sutherland,50898
tetrad,50898
polyclads,50898
buoyant density,50898
supernumerary teeth,50898
Van Gogh Museum,50898
wurtzite,50898
magnetic flux quanta,50898
gluteus minimus muscle,50898
inferior turbinates,50898
centigrade,50898
permanent wave,50898
SIMD,50898
radio jet,50898
tuberculin,50898
Varese,50898
H-II,50898
typical antipsychotics,50898
The remnant,50898
shared experience,50898
average curvature,50898
KAT-7,50898
Risk factor,50898
bow wave,50898
PSPACE-hard,50898
COBE,50898
signal 1,50898
Greenlandic,50898
I38,50898
Stellate cells,50898
Gross domestic product (GDP),50898
Witten,50898
residence time distribution,50898
Petriella,50898
Faraday cage,50898
packing fraction,50898
EM-algorithm,50898
renal stone,50898
PARSEC,50898
arterial gas embolism,50898
peripartum cardiomyopathy,50898
Trier Social Stress Task,50898
bromeliad,50898
silent movie,50898
Gieten,50898
Kosovo,50898
evolutionarily stable strategies,50898
mass absorption coefficient,50898
inclusion/exclusion model,50898
neuron-specific enolase,50898
Adriaen de Vries,50898
expectation-maximization algorithm,50898
relevance feedback,50898
pelvic diaphragm,50898
dB SPL,50898
bloody stool,50898
power-based,50898
bifunctional catalyst,50898
gain-of-function mutation,50898
Oligonychus,50898
Biodegradation,50898
EVN,50898
wire-guided,50898
Burnside ring,50898
fie,50898
Andy Clark,50898
Calcium signaling,50898
Magnetoresistance,50898
Beverley Randolph,50898
naturally isomorphic,50898
scanning electrochemical microscopy,50898
horse race,50898
Orthogonal polarization spectral imaging,50898
potassium titanyl phosphate,50898
GMRs,50898
B 81,50898
NGC 3603,50898
fractals,50898
Finite-difference time-domain,50898
photo elicitation,50898
Schizophyllum,50898
ITS-1,50898
flap type,50898
Donor lymphocyte infusion,50898
Malone,50898
somatotopy,50898
Dalton,50898
medium-chain fatty acid,50898
triangular prism,50898
motion tracker,50898
Hypotonia,50898
No doubt,50898
Anglo-America,50898
potassium tert-butoxide,50898
IRES,50898
Fundus,50898
Medecins sans Frontieres,50898
pyrolysis gas chromatography mass spectrometry,50898
ear pain,50898
Madurella,50898
butyryl-CoA,50898
mastectomies,50898
FoxO4,50898
GLRB,50898
ventral premotor cortex,50898
Carbon-11,50898
Lelystad,50898
blood-retinal barrier,50898
unconditioned stimulus,50898
phenethylamine,50898
Soren Kierkegaard,50898
Peter Piot,50898
Kendrick mass,50898
Phlebovirus,50898
Glypheoidea,50898
cosmetic surgery,50898
xenobiotica,50898
Time-lapse,50898
flavone synthase,50898
Kwara,50898
PTF,50898
peak detector,50898
Barnard 68,50898
oxytetracycline,50898
clinical latency,50898
Chlidonias,50898
PI3K-AKT,50898
sparse image,50898
Spermidine,50898
safranin,50898
endemic disease,50898
H7N9,50898
Jungian,50898
International Accounting Standards Board,50898
genetic evolution,50898
conjugate prior,50898
catchment basin,50898
octet,50898
terazosin,50898
Arrhythmia,50898
Ryegrass,50898
CP violating,50898
Kurds,50898
Holmium,50898
biochemist,50898
Scholastic,50898
ventricularly,50898
imperfective,50898
Integrated coastal management,50898
Turbo,50898
Phytol,50898
Retrograde tracing,50898
mass properties,50898
Ammonium nitrate,50898
XMCD,50898
self-discharge,50898
natural density,50898
Sarcasm,50648
Malonyl-CoA decarboxylase,50898
elliptical galaxy,50898
electrospinning,50898
Labeo,50898
AMAP,50898
multipath,50898
pleural cavities,50898
International Political Economy,50898
Wallacea,50898
Count data,50898
ARCAS,50898
LEDs,50898
Seebeck coefficient,50898
psychodynamic psychotherapy,50898
Acinar cell,50898
Arthur Andersen,50898
genetic carrier,50898
Bioelectromagnetics,50898
Umbonium,50898
Javan gibbon,50898
Biochar,50898
Sadio Diallo,50898
autopoietic,50898
online identity,50898
Telomeres,50898
Electroosmotic flow,50898
Cross-species transmission,50898
multiplicative identity,50898
Spinor,50898
Faber,50898
OME,50898
Archaeological excavation,50898
instant messaging,50898
Ras superfamily,50898
ATP11C,50898
square-free,50898
Farnesol,50898
rhenium,50898
Fasciolosis,50898
Brain training,50898
leukocoria,50898
Gentianella germanica,50898
Single crystal,50898
Cardiolipin,50898
Madagascar day gecko,50898
Rabies,50898
Alumina,50898
Bauxite,50898
central neuropathic pain,50898
Rational choice theory,50898
Alma,50898
ectatic,50898
Deep inelastic scattering,50898
Contact dermatitis,50898
Gensler,50898
ultraviolet B,50898
team conflict,50898
Amygdalohippocampectomy,50898
hypertrophic osteoarthropathy,50898
Detrusor,50898
Cebranopadol,50898
Hex,50898
Venice,50898
Doi Moi,50898
BlackRock,50898
Silicone rubber,50898
theocracy,50898
Electroporation,50898
Lunenburg,50898
Gordon Pask,50898
neural adaptation,50898
Some cities,50898
Smoothened,50898
Hypertrophic osteoarthropathy,50898
attosecond,50898
Basic fibroblast growth factor,50898
essential medicines,50898
polio vaccine,50898
anatomical position,50898
listeriosis,50898
ketoacids,50898
Activin A,50898
acaricide,50898
Asellota,50898
intertrochanteric,50898
Dopamine agonist,50898
coherent population trapping,50898
Nepticulidae,50898
picoeukaryote,50898
ferromagnetic superconductor,50898
SNOMED,50898
hydatidosis,50898
K-selected,50898
handwashing,50898
polymorphic ventricular tachycardia,50898
Pneumococcal pneumonia,50898
constant bit rate,50898
Hypodontia,50898
Biogas,50898
CNOT,50898
amphetamines,50898
instrumentalism,50898
Spermatogenesis,50898
long interspersed nuclear element,50898
pressure support ventilation,50898
word processing,50898
Costera,50898
combination reaction,50898
civic education,50898
Tremandraceae,50898
polycrystal,50898
mesoscale meteorological,50898
Tuberculin skin test,50898
nuclear interaction,50898
Specific Language Impairment (SLI),50898
Open Directory Project,50764
RAD52,50898
SU(N),50898
fair coin,50898
spatial econometrics,50898
laser dye,50898
manta ray,50898
innate lymphoid cell,50898
Global North,50898
Cancer-related fatigue,50898
periodic function,50898
average-case complexity,50898
CATI,50898
cultural intelligence,50898
polarization spectroscopy,50898
The tracker,50898
Good Behaviour,50898
molecular cloning,50898
Pleural effusion,50898
Marine conservation,50898
The card,50898
Invasive lobular carcinoma,50898
high income country,50786
integrative negotiation,50898
Amphibole,50898
rolling friction,50898
renal plasma clearance,50898
Minimal logic,50898
Idiopathic pulmonary fibrosis,50898
mitochondrial neurogastrointestinal encephalomyopathy,50898
beekeeping,50898
Deaf community,50898
Ceteris paribus,50898
Factor H,50898
starlet sea anemone,50898
Optineurin,50898
monopolistic firm,50898
Polycyclic aromatic hydrocarbons,50898
Pneumothorax,50898
Autosomal dominant,50898
Bronchial thermoplasty,50898
Prahalad,50898
Not Otherwise Specified,50898
testicular sperm extraction,50898
activity theory,50898
Spanish Golden Age,50898
Secondary infertility,50898
imperial cult,50898
Candida utilis,50898
Matrix method,50898
polymorphs,50898
Eretmochelys imbricata,50898
respectable,50898
Labeling theory,50898
pyrroloquinoline quinone,50898
Bile duct,50898
environmental disaster,50898
Serpulidae,50898
Rorschach,50898
agricultural biodiversity,50898
Red supergiant,50898
colour charge,50898
modelling solutions,50898
Universal screening,50898
Cathepsin B,50898
risk seeking,50898
Divergent,50898
irreversible process,50898
NAR,50898
Urinary tract infection,50898
Zimmermann,50898
The Third Eye,50898
Synaptic plasticity,50898
sexting,50898
auditory imagery,50838
Lionfish,50898
primary central nervous system lymphoma,50898
Cognitive Psychology,50898
Depo-Provera,50898
Pome,50898
The concealed,50898
Triple P,50898
GBA3,50898
OCL,50898
Gallbladder,50898
Dental fear,50898
syndesmosis,50898
pinnacle,50898
Diathermy,50898
Crop yield,50898
Twin Towers,50898
Tabari,50898
triclad,50898
Markov random field,50898
SWF,50898
Platylomia,50898
17 girls,50898
Squatting,50898
gauge fixing,50898
Computer-Mediated Communication,50898
corps diplomatique,50898
narrow-mouthed frogs,50898
interferon-gamma receptor,50898
whiskers,50898
Stochastic electrodynamics,50898
tree crown,50898
ventricular cells,50898
literature-based discovery,50871
atrial flutter,50898
Benign hereditary chorea,50898
microcomputer,50898
resampling methods,50898
marine debris,50898
Early start,50898
tortuosity,50898
entropy formula,50898
Evidence-based practice,50898
electrochemical cell,50898
Digitizing,50898
Endotracheal intubation,50898
Dyscophus antongilii,50898
Cryotherapy,50898
cicada,50898
herd behavior,50898
catchment management,50898
Red Eye,50898
KKLT,50898
social role theory,50898
Arnica montana,50898
Atelopus pachydermus,50898
neutron activation analysis,50898
Saito,50898
BICOL,50898
lignosulphonates,50898
introgression,50898
keratoderma,50898
teledermatology,50898
self-schema,50898
APO,50898
Simulated annealing,50898
Anthocoris nemoralis,50898
Achmatowicz reaction,50898
Avidity,50898
Gignac,50898
common grounds,50898
ABBYY,50898
Long interspersed nuclear element,50898
Ethyl glucuronide,50898
Bromodeoxyuridine,50898
vestibular function,50898
Chazy,50914
political satire,50898
COMPTEL,50898
Britney Spears,50898
charge-density wave,50898
Duodenal ulcer,50898
revealed comparative advantage,50898
acaricidal,50898
Varenicline,50898
Land degradation,50898
Job Characteristics Model,50898
Genetic counselling,50898
life-history evolution,50898
scanning electron microscopic,50898
Multimedia learning,50898
core city,50898
Lebesgue integration,50898
chemolithoautotrophic,50898
Alois,50898
fibrate,50898
commutative ring,50898
vertical-cavity surface-emitting laser,50898
Caustic ingestion,50898
Soil fertility,50898
Crystal structure,50898
Gene editing,50898
William James,50898
Buxus,50898
media play,50898
Corporate tax,50898
Grammatical gender,50898
common-source,50898
food safety,50898
limit order,50898
Chomsky,50898
Sodium sulfate,50898
Chronic lymphocytic leukemia (CLL),50898
pancreatic pseudocyst,50898
Kripke models,50898
argumentum ad hominem,50898
continuous wavelet transform,50898
Lisbon Strategy,50898
Cartagena,50898
expert system,50898
ytterbium,50898
measurement problem,50898
Easton,50898
Atmos,50898
Interferon-alpha,50898
Vagus nerve stimulation,50898
angle closure glaucoma,50898
hydrophobic forces,50898
MESS,50898
distributed database,50898
Construction Grammar,50898
paraneoplastic cerebellar degeneration,50898
Adrianus,50898
extrasolar planets,50898
harriers,50898
coinductive,50898
Primary health care,50898
synchronous activity,50898
Renal ischemia,50898
commodity market,50898
professional learning community,50978
Cancer staging,50898
Predicate,50980
Krkonose,50898
dynamic pricing,50898
interactive drama,50898
carbene radical,50898
oxprenolol,50898
Lewis Carroll,50898
corrole,50898
Mucopolysaccharidoses,50898
social forces,50898
Dissipative Particle Dynamics,50898
Hazelnut,50898
eyetracking,50898
service economies,50898
Propadiene,50898
Bijdragen tot de Dierkunde,50898
Pituitary stalk,50898
Online chat,50898
Gulf Cooperation Council (GCC),50898
public management,50898
Eugene Garfield,50898
runes,50898
Kuala Lumpur,50898
triple test,50898
Extirpation,50898
endofunctor,50898
Blue rubber bleb nevus syndrome,50898
Mieke Bal,50898
Chronic periodontitis,50898
chronic kidney failure,50898
micromanipulator,50898
iliac branch,50898
excess body weight,50898
beat generation,50898
P waves,50898
Maternal care,50898
Chromosome segregation,50898
molecularly imprinted polymer,50898
cochineal,50898
Intrathoracic,50898
palmette,50898
Hypoxic ischemic encephalopathy,50898
Pedagogy,50898
e.mu,50898
The Spectrum,50898
Introgression,50898
Elfriede Jelinek,50898
texture recognition,50898
Dutch Open,50898
reciprocal determinism,50898
Chinese Postman Problem,50898
honor code,50898
Celsr1,50898
Action potential,50898
AgOTf,50898
inverse probability,50898
Adrenoceptor,50898
epiphenomena,50898
Bartonella henselae,50898
"lesbian, gay, bisexual, transgender",50898
Montesquieu,50898
matched filter,50898
Walther Nernst,50898
sterane,50898
statistical machine translation,50898
Medicinal plant,50898
Bacterial pneumonia,50898
T wave,50898
Anther,50898
paralanguage,50898
Tibetan plateau,50898
TREC 2005,50898
B cell receptor,50898
US Supreme Court,50898
Masculinity,50898
NML Cyg,50898
ESHRE,50898
Transition path sampling,50898
ureagenesis,50898
Excitotoxicity,50898
Narcolepsy,50898
retail banking,51061
Capitalism,50898
Shyness,50898
Inelastic neutron scattering,50898
neonatal herpes,50898
spatial subdivision,50898
severe acute malnutrition,50898
S-Matrix,50898
Heat capacity,50898
Chloroflexus,50898
Tagore,50898
Louise Bourgeois,50898
CWIc,50898
Web 2.0,50898
digital radiography,50898
private railway,50898
uterine prolapse,50898
time-inconsistent,50898
public debt,50898
cue reactivity,50898
aminophosphine,50898
PRPS1,50898
computer tomography (CT) scans,50898
multiplicative inverse,50898
Wiener,50898
Visceral Leishmaniasis,50898
Hochschild cohomology,50898
non-Fermi liquid,50898
Hysteroscopy,50898
Nuclear receptor,50898
Hillsborough,50898
Acamprosate,50898
Clofarabine,50898
Fainting,50898
infraspecific taxa,50898
AIDS-defining illnesses,50898
Phototrophic biofilms,50898
Microanalysis,50898
overlapping generations model,50898
wheat germ,50898
privatisation,50898
catumaxomab,50898
limit formula,50898
Surinamese people,50898
reservation wage,50898
Interferons,50898
water efficiency,50898
initial algebra,50898
Meiji Restoration,50898
Homosexuality,50898
nanowires,50898
Transport planning,50898
multilinear,50898
fundus albipunctatus,50898
Ctesias,50898
critical band,50898
storm surge,50898
AMADEUS,50898
Collagenous colitis,50898
water balloon,50898
Peptide T,50898
Drug addiction,50898
metalinguistic awareness,50898
human African trypanosomiasis,50898
Glycerol,50898
Constraint propagation,50898
Ideal free distribution,50898
photoconductivity,50898
magnetic coupling,50898
effective field theories,50898
Algemeen Nederlands Persbureau,50898
Barr body,50898
revenue sharing,50898
Kotovsky,50898
Lyne,50898
Hepatitis A,50898
MACHO,50898
social model,50898
contingency management,50898
A 52,50898
PORCN,50898
intergroup bias,50898
tapetum,50898
child pornography,50898
colloidal suspension,50898
ad lib,50898
retrotransposons,50898
Dengue virus,50898
ambient intelligence,50898
null space,50898
media studies,50898
Basal cell carcinoma,50898
listwise deletion,50898
pure strategy,50898
Piero Sraffa,50898
Invertebrate,50898
Hadromerida,50898
RWE,50898
univariate distribution,50898
Lommel,50898
laryngopharyngeal reflux,50898
Suva,50898
Glucans,50898
Lipolysis,50898
media market,50898
system R,50898
Boeing 737,50898
Carnitine,50898
Benz,50898
Steven Levitt,50898
NGC 2770,50898
HbA1,50898
Grands Causses,50898
Broken windows theory,50898
gonochoristic,50898
Calcitonin gene-related peptide,50898
NDS,50898
dry deposition,50898
Operational risk,50898
sadomasochism,50898
Dempster-Shafer theory,50898
Rayleigh length,50898
8j,50898
Primary biliary cirrhosis,50898
Predator,50898
incentive compatible,50898
NIs,50898
Heyting Arithmetic,50898
Healthcare provider,50898
collegia,50898
Interleukin-7,50898
Chromatin remodeling,50898
CLCN1,50898
Controlled substance,50898
nickel titanium,50898
Puppis,50898
viral advertising,50898
financial contagion,50898
heart transplantation,50898
Pancytopenia,50898
market production,51201
ATRIPLA,50898
biosafety,50898
Ernest Mandel,50898
High-mobility group,50898
Sonogashira coupling,50898
sine-Gordon equation,50898
Neyman,50898
Postpartum psychosis,50898
East African Rift,50898
fife,50898
Rhineland,50898
Javan hawk-eagle,50898
non-logical symbol,50898
quantity discount,51215
Saccade,50898
micromechanics,50898
critical reconstruction,50898
Malignant hypertension,50898
Legionella longbeachae,50898
Berbice Dutch Creole,50898
Zygosaccharomyces,50898
Pulmonary edema,50898
lignin peroxidase,50898
group decision making,50898
Cyanogenic,50898
volatility smile,51227
closed string,50898
Erasmus University,50898
Acute liver failure,50898
Massively parallel,50898
revenue management,50898
variational method,50898
hyperbolic space,50898
satellite galaxies,50898
SO(8),50898
Abram de Swaan,50898
effective schools,51238
Beijing Platform,50898
Cardiogenic shock,50898
Pelodytes,50898
Alpha Magnetic Spectrometer,50898
lex Iulia,50898
Social mobility,50898
Asexual reproduction,50898
keratoconus,50898
hoverfly,50898
outcrossing,50898
KVLQT1,50898
triphenyl phosphite,50898
NEK1,50898
ChBM,50898
carboxyhaemoglobin,50898
climate pattern,50898
disability-adjusted life year,50898
PEPCK,50898
private mortgage insurance,50898
KSR2,50898
Phytoplankton,50898
cell survival curve,50898
SMARCA4,50898
saddle point approximation,50898
AVR,50898
agrobiodiversity,50898
ILC2,50898
Calathea,50898
Javan gibbons,50898
poacher,50898
Canadian French,50898
The newcomers,50898
Bifidobacterium lactis,50898
polar coordinates,50898
haemozoin,50898
tensile strength,50898
Geomagic,50898
cannibalistic,50898
Herpotrichiellaceae,50898
wind assistance,50898
IFL,50898
interosseous,50898
DI-2,50898
diimine ligand,50898
bronchospasm,50898
P. nigra,50898
half-integer,50898
ergosphere,50898
neuroepithelium,50898
Shapley-Ames Catalog,50898
Baryogenesis,50898
HIV controllers,50898
windthrow,50898
program analysis,50898
Ultisol,50898
inferior olivary nucleus,50898
Zuidland,50898
environmental public health,50898
HIV-2,50898
mono-ethnic,50898
LMX1B,50898
trapezius muscle,50898
chyle,50898
cosmic dust,50898
prolactin receptor,50898
Ccl5,50898
frugivore,50898
Scorpius,50898
EBL,50898
Arbutus unedo,50898
saphenous,50898
Anaesthesia,50898
horizontal gaze palsy,50898
neighbor-joining,50898
Follistatin,50898
transfer pricing,50898
meningoencephalitis,50898
Alma-0,50898
literary genre,50898
polarised light,50898
Champagnat,50898
caddisflies,50898
Iroquois homeobox,50898
piperacillin,50898
large extra dimension,50898
Fermi-liquid,50898
CHM,50898
verotoxin,50898
fiber-based,50898
lepirudin,50898
Rockall,50898
k-means,50898
silicate glass,50898
piperonyl butoxide,50898
3D object recognition,50898
PDSs,50898
Flumazenil,50898
Redshank,50898
Nitric Oxide,50898
Typhlodromips swirskii,50898
lignins,50898
cebranopadol,50898
AIP,50898
Tana,50898
callose,50898
sea-buckthorn,50898
Klatskin tumor,50898
Araliaceae,50898
exostosis,50898
Comparative European Politics,50898
unbiased estimator,50898
Pfeiff.,50898
beta-functions,50898
BHs,50898
normal-tension glaucoma,50898
synostosis,50898
"1,2-dimethoxyethane",50898
Siboga Expedition,50898
Dharavi,50898
platypus,50898
Agaricia,50898
wistar rat,50898
ascomycete,50898
pseudocyst,50898
Sandhoff disease,50898
min-entropy,50898
Sagittarius,50898
carteolol,50898
geo-referencing,50898
Flanker,50898
Rajka,50898
coitus,50898
Drimys,50898
fast protein liquid chromatography,50898
Lithocarpus,50898
WAV,50898
azepine,50898
neoxanthin,50898
purine analog,50898
Osteophyte,50898
Naga,50898
flupirtine,50898
dioptric,50898
symblepharon,50898
acute glaucoma,50898
MIKE,50898
haplodiploid,50898
sigma Lupi,50898
nanowire,50898
fordist,50898
secondary infertility,50898
West Malaysia,50898
5S ribosomal RNA,50898
Marianne,50898
AChEIs,50898
polynomial hierarchy,50898
mechanical ventilator,50898
adhesion-GPCR,50898
galaxy formation,50898
Ward identities,50898
lionfish,50898
2-oleoylglycerol,50898
Rta,50898
cyclopamine,50898
urinary stone,50898
transceiver,50898
organic anion-transporting polypeptide,50898
money supply,50898
Superconductivity,50898
intracranial pressure monitoring,50898
CtBP1,50898
Bii,50898
conventional PCI,50898
ldPE,50898
Windows,50898
Ca' Granda,50898
chief cells,50898
idraparinux,50898
Kripke semantics,50898
Period 1,50898
UCI,50898
poison,50898
hybrid vigour,50898
methyl salicylate,50898
glycerate,50898
Calamagrostis villosa,50898
carboxyl terminal,50898
rare birds,50898
Opuntia,50898
paramedic,50898
logit analysis,50898
Rnf2,50898
prochlorophytes,50898
anti-helminthic,50898
aminoglycosides,50898
heliox,50898
micro-surgery,50898
mycobacteriosis,50898
matrix theory,50898
ErbB4,50898
masturbate,50898
subalpine forest,50898
strongyloidiasis,50898
goldstino,50898
elliptic flow,50898
Monodora myristica,50898
Hedera,50898
SD50,50898
polar surface area,50898
compositional data analysis,50898
singular-value decomposition,50898
iodoacetate,50898
D. galeata,50898
helicoidal,50898
PRA,50898
main core,50898
edge detectors,50898
rhodophyte,50898
hydroformylated,50898
inh,50898
coconut,50898
Siderastrea siderea,50898
Nasal polyp,50898
horizontal-branch,50898
computer music,50898
decollement,50898
herkogamy,50898
SYT4,50898
extraocular muscle,50898
vibrational spectroscopy,50898
Particle Image Velocimetry,50898
thought disorder,50898
modafinil,50898
Organometallics,50898
gastric bypass,50898
thrombopoiesis,50898
farnesylation,50898
UNIX workstation,50898
Lake Lucerne,50898
Amniotic fluid,50898
Immunosenescence,50898
Fon,50898
superior cerebellar peduncle,50898
acetylacetone,50898
Tithonia diversifolia,50898
carolinensis,50898
CTNND1,50898
LIME,50898
hyperpolarisation,50898
vancomycin-resistant Enterococcus,50898
envy-freeness,50898
Ig heavy chain,50898
SYCP3,50898
Spanish Crown,50898
Stylophora pistillata,50898
Maluku,50898
SPAM,50898
KAFOs,50898
bronchial asthma,50898
ramose,50898
Nonlinearity,50898
muscle soreness,50898
Wells score,50898
syndesmotic screw,50898
social constructionist,50898
oxymercuration,50898
oleoyl,50898
Deuterium labeling,50898
bursters,50898
SHP2,50898
Afrikaner,50898
CDC group,50898
transductions,50898
SMV,50898
Spherocytosis,50898
Cluster C,50898
Womersley number,50898
Palicourea,50898
Joint Genome Institute,50898
Planula,50898
Aframomum melegueta,50898
BAG3,50898
radioactive decay,50898
active labour market policy,50898
geranylgeranylation,50898
NVB,50898
matrix attachment regions,50898
Lamivudine,50898
Danielson,50898
Microsphere,50898
complete variety,50898
Pheophorbide A,50898
Optical microscopy,50898
Sprouting,50898
Greater London,50898
Juchitan,50898
purifying selection,50898
flow separation,50898
Wb.,50898
Spiked,50898
rapid urease test,50898
orbital inclination,50898
IS&T,50898
premature ventricular complexes,50898
oligosaccharyl transferase,50898
filariasis,50898
connectome,50898
HDAC3,50898
pannexin,50898
cyclam,50898
Deferiprone,50898
biomedical optics,50898
High Commissioner,50898
call duration,50898
gamma-glutamyl hydrolase,50898
VME,50898
statistical bias,50898
Cingulata,50898
3D Systems,50898
substrate language,50898
PARAFAC,50898
UV completion,50898
interoceptive awareness,50898
lipid storage disorders,50898
A431 cells,50898
Tringa totanus,50898
haystacks,50898
phylogenetic inference,50898
Arduino,50898
OPN1LW,50898
wild boar,50898
cerebellar peduncle,50898
CFSP,50898
syngenic,50898
kurtosis,50898
Cologuard,50898
Helogyne,50898
PM2.5,50898
anophelines,50898
Kerr black hole,50898
LDL-receptor,50898
distorted view,50898
proglacial,50898
Fansidar,50898
rectocele,50898
prothrombotic risk factors,50898
Dirichlet boundary condition,50898
Calliergon,50898
pIC50,50898
Clearview,50898
GLI2,50898
Moulton,50898
landrace,50898
cerias,50898
oculomotor control,50898
advanced generation,50898
tomato juice,50898
hypokalemic,50898
contrast radiography,50898
counterinsurgency,50898
TPF,50898
Nucleoside,50898
Image noise,50898
polymyxins,50898
27-Hydroxycholesterol,50898
Septuagint,50898
Schoolwork,50898
Conch reef,50898
keystone,50898
Baccharis,50898
evolved convergently,50898
crepitus,50898
neurohypophysis,50898
bevel,50898
reaction rate constant,50898
femtoliter,50898
Supergravity,50898
Warner Chilcott,50898
auct.,50898
Pironio,50898
histone-like,50898
zinc chloride,50898
Brier,50898
Tbx5,50898
cholelithiasis,50898
Furin,50898
anaerobiosis,50898
palmar fascia,50898
dactinomycin,50898
spermatocyte,50898
phonemic,50898
marathon,50898
nutcracker esophagus,50898
excitation temperature,50898
ZIC1,50898
population projection,50898
Ospedale Maggiore,50898
polyanion,50898
Philip IV,50898
TIQ,50898
optical companion,50898
magnetic pressure,50898
Ecological validity,50898
influenza virus B,50898
egressive,50898
Rhodamine B,50898
Incremental cost,50898
paralogues,50898
trans-Atlantic slave trade,50898
NKR,50898
HERG,50898
Apt,50898
Liposomal amphotericin B,50898
deviated septum,50898
curdlan,50898
Stenosis,50898
Nur77,50898
SPARs,50898
BCD group,50898
EU Constitution,50898
timolol,50898
pterygopalatine,50898
femoral fracture,50898
small cells,50898
Surface Enhanced Raman Spectroscopy,50898
2-butanol,50898
REH,50898
D-max,50898
Troy,50898
Big Three,50898
Delia radicum,50898
N170,50898
heart muscle cell,50898
plagiocephaly,50898
diarylethene,50898
exchange transfusion,50898
potentiostat,50898
Buddleja,50898
sovereign default,50898
haeme,50898
Boeotia,50898
OATP,50898
accelerating potential,50898
CCMP,50898
Apiaceae,50898
chromomycin A3,50898
3MP,50898
DGAT1,50898
weight training,50898
bleomycin-induced pulmonary fibrosis,50898
groundcover,50898
Euseius scutalis,50898
GROMACS,50898
PGD2,50898
conformality,50898
non-restrictive,50898
Coronary Artery Disease,50898
BHK,50898
Cardiovirus,50898
Space group,50898
Castanopsis,50898
p120 catenin,50898
fusA,50898
Cognitive test,50898
Gai Pied,50898
Coulomb energy,50898
syllabary,50898
SN 2008D,50898
HMB-45,50898
dot-to-dot,50898
N-ethylmaleimide,50898
AHE,50898
Speleonectidae,50898
Nobel prize,50898
Cochabamba,50898
microtitre plate,50898
lncRNA,50898
porcn,50898
c-FLIP,50898
interaction hypothesis,50898
enterocele,50898
transverse mode,50898
yearling,50898
nitro compound,50898
N-end rule,50898
speckle imaging,50898
Apolipoprotein A-I,50898
anticipatory anxiety,50898
Indo-Australian Archipelago,50898
SMARCE1,50898
Ophryosporus,50898
DCN,50898
long-chain hydroxyacyl-CoA dehydrogenase deficiency,50898
binocular rivalry,50898
dissimulate,50898
Tibialis anterior,50898
cysteine synthase,50898
olefine,50898
cyclase,50898
dataflow,50898
sex reassignment surgery,50898
chromosome conformation capture,50898
electron-transfer dissociation,50898
Common Snipe,50898
asymptotically flat,50898
16S ribosomal DNA,50898
Khaya senegalensis,50898
Petra,50898
Fagus,50898
broadband internet,50898
Paecilomyces,50898
DNA profiling,50898
sandur,50898
RLBP1,50898
G15,50898
corporate tax,50898
Essequibo River,50898
synovial membrane,50898
POLR1C,50898
whitefly,50898
composability,50898
Leopold,50898
Thai-Malay peninsula,50898
Xanthorrhoeaceae,50898
virtual currency,50898
HDAC6,50898
iliopsoas,50898
interpretation bias,50898
visiting hours,50898
spectral phase,50898
sphaleron,50898
KTRs,50898
chemoautotrophic,50898
Hydropsyche,50898
TF1,50898
Contact lens,50898
TMF1,50898
Symplocos,50898
left ventricular outflow tract obstruction,50898
OSPAR,50898
selective perception,50898
Deschampsia flexuosa,50898
eurozone,50898
clinical translation,50898
wind energy,50898
Zaragoza,50898
common cold,50898
Polio Vaccine,50898
metopic,50898
Digoxin,50898
replication fork,50898
facial canal,50898
Gunn,50898
clofarabine,50898
HPT axis,50898
cardiac transplant,50898
Aphidoletes aphidimyza,50898
ayahuasca,50898
Proto-Indo-European,50898
vaginal dryness,50898
RhoG,50898
Ulmus,50898
Nitzschia,50898
gas oil,50898
micturation,50898
IL-25,50898
MNIST,50898
normal lens,50898
Saramaccan,50898
Pten,50898
myelofibrosis,50898
AVC,50898
valsartan,50898
compressed sensing,50898
cowani,50898
SN 2007uy,50898
oligopeptide,50898
1RM,50898
diisocyanate,50898
Malaise trap,50898
dimethyl carbonate,50898
Florida Keys,50898
vasocongestion,50898
Sabellida,50898
nuclear speckles,50898
bareback,50898
3-hydroxykynurenine,50898
CLASP2,50898
Kimba,50898
floor plate,50898
cartilaginous fish,50898
energy dispersive X-ray spectroscopy,50898
photoplethysmography,50898
Breukelen,50898
afferent arteriole,50898
warm dust,50898
Fosfomycin,50898
Ordinary Least Squares,50898
Phytoseius,50898
C-29,50898
TIAM1,50898
surface ectoderm,50898
Gram-stained,50898
perianth,50898
barH,50898
bimane,50898
MTZ,50898
Atelopus,50898
acid-fast,50898
Arctic amplification,50898
NGC 6251,50898
Delta gamma,50898
Chaetomium,50898
Nectaroscordum,50898
electrostatic charge,50898
European Monetary System,50898
AFL,50898
Bismarck Archipelago,50898
vecuronium,50898
image noise,50898
atovaquone,50898
fibrocartilaginous,50898
electronic health record,50898
OTX2,50898
Judas,50898
OPN1MW,50898
Pir,50898
Clarke Error Grid,50898
cefixime,50898
R27,50898
Golden Fleece,50898
L-4,50898
balance theory,50898
PSIS,50898
parent artery,50898
tooth discoloration,50898
urogenital ridge,50898
bisulfate,50898
staphylococcal enterotoxin B,50898
Bilirubin,50898
Geographic Information System (GIS),50898
DSP,50898
josamycin,50898
sirolimus,50898
GM2,50898
amygdalohippocampectomy,50898
3D modeling,50898
APJ,50898
fL,50898
1B2,50898
Reaction time,50898
n-butanol,50898
hemagglutination inhibition,50898
NEM,50898
chaetotaxy,50898
daily mix,50898
associative learning,50898
Coxsackie,50898
GIPR,50898
Bifidobacterium longum,50898
dysmetria,50898
teratoma,50898
Acute illness,50898
MTM1,50898
Upp,50898
TorA,50898
bulbar,50898
de Sitter space,50898
Betelgeuse,50898
Bcr-Abl,50898
ubiquitinated,50898
weanling,50898
Leverett glacier,50898
primitive fishes,50898
Escallonia myrtilloides,50898
Frechet derivative,50898
cytoplasmic incompatibility,50898
HTX,50898
D. guineti,50898
HsCRP,50898
smalt,50898
SGEF,50898
basal plate,50898
skim milk,50898
biogeographic region,50898
Cushing,50898
otoconia,50898
Infection control,50898
ARID1B,50898
Stellenbosch,50898
2-pentanone,50898
infinite mass,50898
making money,50898
ENSEMBL,50898
piano,50898
W37,50898
azo coupling,50898
care farming,50898
external iliac,50898
separation anxiety disorder,50898
androgyny,50898
metencephalon,50898
Penicillium,50898
Eikonal equation,50898
Zunz,50898
equilibrium fractionation,50898
RDH5,50898
Piritramide,50898
infusion pump,50898
sovereign bond,50898
cold ischemia,50898
Telomerase,50898
a-catenin,50898
Computational fluid dynamics,50898
absence seizure,50898
Defecography,50898
literacy tests,50898
Akita,50898
soil liming,50898
whiteflies,50898
current algebra,50898
hexagonal close packing,50898
urethrectomy,50898
interleukin-5,50898
gram negative,50898
Harris matrix,50898
granulocytosis,50898
coset conformal field theory,50898
Leandra subseriata,50898
tadpole,50898
Jacalin,50898
Detoxication,50898
Siler,50898
Diana,50898
injection site reaction,50898
biphenyl degradation,50898
generating functional,50898
pornography,50898
Chargino,50898
comparative fit,50898
gentamycin,50898
indehiscent,50898
urochordata,50898
HFC,50898
"5,7-dihydroxytryptamine",50898
deep-brain stimulation,50898
cystometry,50898
karyological,50898
pre-invasive lesions,50898
vasoactive intestinal polypeptide,50898
Gallinago,50898
Squat,50898
Glomerula,50898
solar-type star,50898
gastrointestinal hemorrhage,50898
biochar,50898
chromosphere,50898
Final Palaeolithic,50898
activating transcription factors,50898
alk,50898
dynamitin,50898
timeless (tim),50898
Minas Gerais,50898
RSPO3,50898
metric tensor,50898
CG1,50898
sclerophyllous,50898
ethosuximide,50898
Block design,50898
RING finger domain,50898
retinex,50898
necropsies,50898
ITM,50898
T54,50898
endoxifen,50898
Empowered,50898
SUFU,50898
anopheline,50898
myelodysplasia,50898
Sordariaceae,50898
spastic ataxia,50898
4a-c,50898
tromethamine,50898
Rondani,50898
outbreeding,50898
metallacycle,50898
Fonsecaea pedrosoi,50898
Reek,50898
felodipine,50898
OpenMRS,50898
Conservative Party,50898
physical computing,50898
Rare-earth element,50898
Lom,50898
COX1,50898
singular point,50898
backpropagation,50898
FPR2,50898
HR 4796,50898
Protula,50898
OGC,50898
Imperial College,50898
A6,50898
Lamiaceae,50898
Plasma osmolality,50898
NFKB1,50898
n-heptane,50898
causal attributions,50898
Tettigonia,50898
circumflex artery,50898
middle ages,50898
sulfur assimilation,50898
iron-sulfur cluster,50898
luminosity class,50898
FCO,50898
GROM,50898
SOCS4,50898
T-MO,50898
NFKB2,50898
MARK2,50898
syndiotactic,50898
alar plate,50898
cytochrome c1,50898
Karsten,50898
conjugate vaccine,50898
Tfh cell,50898
splenocyte,50898
laminarin,50898
sigma-model,50898
ARID1A,50898
ground tissue,50898
CD94,50898
LINEs,50898
co-repressor,50898
pulse-width modulation,50898
Atlas Mountains,50898
sawtooth function,50898
chordata,50898
domain model,50898
filamentous algae,50898
Urapidil,50898
Vascular malformation,50898
Deep Blue,50898
fatty acid-binding protein,50898
magnetoelastic,50898
gaugino,50898
valosin-containing protein,50898
haddock,50898
straight sinus,50898
EXT2,50898
mannoheptulose,50898
L. kaempferi,50898
genital ulcer,50898
fosfomycin,50898
Continental Europe,50898
CYP27A1,50898
sept,50898
Na2CO3,50898
Snipe,50898
Electrogram,50898
bacteremic,50898
chalcogen,50898
Serpula,50898
chromogranin,50898
ESUS,50898
genetic hitchhiking,50898
myotonia,50898
phenobarbitone,50898
Phaeophyta,50898
esophageal dysmotility,50898
GNPAT,50898
association fiber,50898
plasmodium,50898
tidal stripping,50898
lercanidipine,50898
nasogastric intubation,50898
acinar cell,50898
Deppea,50898
artesian water,50898
2000 miles,50898
empiric therapy,50898
statistical distance,50898
hepatitis A vaccine,50898
resiquimod,50898
Repressor,50898
F13B,50898
WDM,50898
de 18,50898
diethylstilbestrol,50898
Condom,50898
protocatechuic,50898
polydioxanone,50898
German Bight,50898
microplastic,50898
lacidipine,50898
Charlevoix,50898
sex industry,50898
spats,50898
FWE,50898
silicles,50898
TNBC,50898
"2,2-dimethylpentane",50898
astronomical unit,50898
sinter,50898
Catalan Coastal Ranges,50898
Solomon islands,50898
Movement disorders,50898
GATA3,50898
NTHi,50898
hip adductors,50898
Tbx1,50898
Mesna,50898
SLC4A1,50898
W108,50898
Janus kinase,50898
Periodic acid-Schiff,50898
ultra-low frequency,50898
expansin,50898
unknown language,50898
viral tropism,50898
Serpulid,50898
UCHL1,50898
oblique projection,50898
tax holiday,50898
color map,50898
high mobility group,50898
monoiodotyrosine,50898
continuous symmetry,50898
R155,50898
reverse merger,50898
alpha2-macroglobulin,50898
microsomal epoxide hydrolase,50898
ionic bonding,50898
7 L,50898
wind park,50898
Isotopic labeling,50898
A156,50898
General anaesthesia,50898
Anopheles annularis,50898
pharyngitis,50898
Navicula,50898
TDG,50898
behavioral despair,50898
NRAMP1,50898
PER3,50898
sphering,50898
Homoplasy,50898
Mechanotransduction,50898
SOCS,50898
resistance 3,50898
psychopharmacological,50898
buttock,50898
p-chloromercuribenzoic acid,50898
aquatic plant,50898
Giant Metrewave Radio Telescope,50898
Hypoxidaceae,50898
cermet,50898
"1,1'-bis(diphenylphosphino)ferrocene",50898
N103,50898
cholesterylester transfer protein,50898
mesozooplankton,50898
fluxionality,50898
SARS,50898
seminiferous epithelium,50898
PWM,50898
benign prostate hyperplasia,50898
Cognitive development,50898
W63,50898
epoxide hydrolase,50898
days difference,50898
atmospheric sciences,50898
RAFM,50898
activin A,50898
Santa Catarina,50898
impotence,50898
Metronidazole,50898
time reversal symmetry,50898
Pex13,50898
Renal clearance,50898
macroalga,50898
PSI-BLAST,50898
saposin,50898
PITX2,50898
metipranolol,50898
Stipa ichu,50898
R Dor,50898
employers' organization,50898
Eccentricity,50898
M12,50898
xenarthran,50898
mRAP,50898
pineapple,50898
three-folds,50898
Melanogrammus,50898
DNA shuffling,50898
Hardy-Weinberg,50898
uninvited,50898
intraocular surgery,50898
agranulocytosis,50898
dimethyl malonate,50898
word repetition,50898
IL-32,50898
G6PC2,50898
S. enterica serovar Typhimurium,50898
Goldstone boson,50898
infradian rhythm,50898
aortopulmonary window,50898
A/H3N2,50898
The nerves,50898
Forth,50898
Tween 80,50898
a15,50898
bravo,50898
DLL4,50898
land breeze,50898
Wigner-Seitz cell,50898
disparate treatment,50898
C4A,50898
myoclonic jerks,50898
Exocrine pancreatic insufficiency,50898
sensory ataxia,50898
slipface,50898
stamen,50898
Germar,50898
lesser trochanter,50898
saddle nose deformity,50898
microsporogenesis,50898
minimal logic,50898
MARK3,50898
cilium,50898
phytol,50898
7TM,50898
molecular phylogeny,50898
AGPS,50898
cultural reproduction,50898
Managua,50898
Danaus plexippus,50898
error correcting codes,50898
intramolecular reaction,50898
plant pigment,50898
scepsis,50898
Saguenay,50898
OpenCL,50898
FoxO3,50898
HF1,50898
cocoa,50898
overbar,50898
glucanase,50898
genetically modified crops,50898
neurohormone,50898
wavefront,50898
Mesostigmata,50898
bounding volume,50898
Bifidobacterium bifidum,50898
remittances,50898
Piecemeal,50898
EA-1,50898
CREB1,50898
Lesser Sunda Islands,50898
lateral release,50898
GPR125,50898
5-lipoxygenase,50898
Warfarin sodium,50898
Immunochemistry,50898
position correction,50898
extensional stress,50898
quantitative review,50898
phase-contrast microscopy,50898
IRF-3,50898
dispersion relations,50898
Messinian Salinity crisis,50898
superior parietal lobule,50898
nitroso,50898
benzocaine,50898
BBD,50898
alternating-time temporal logic,50898
deferiprone,50898
homo-lumo,50898
middle frontal gyri,50898
BIRC6,50898
Fluoropolymer,50898
adrenoreceptors,50898
diiodotyrosine,50898
Jabal al Akhdar,50898
eriophyoid,50898
Glaciology,50898
DVI,50898
ATB,50898
anejaculation,50898
Burkholderia cepacia,50898
Brahman,50898
Tagula island,50898
Nassella,50898
CYLD,50898
polyvinyl alcohol,50898
AlCl3,50898
MARK4,50898
bladder outlet obstruction,50898
ampullary cancer,50898
Guinier,50898
inbreeding depression,50898
LRRC,50898
computer cluster,50898
Lipodystrophy,50898
fisting,50898
Berbice River,50898
social property,50898
butters,50898
Coumadin,50898
astroturf groups,50898
BSc,50898
arboreta,50898
Eobania vermiculata,50898
Stereoscopic,50898
pulse field gel electrophoresis,50898
cell assays,50898
Nod factor,50898
TACS,50898
Bathsheba,50898
Surface Plasmon Resonance,50898
ombitasvir,50898
Tomita,50898
rhinorrhoea,50898
PARI,50898
B. infantis,50898
NaOMe,50898
telluric absorption,50898
Alkaline phosphatase,50898
antimetabolic,50898
coagulase,50898
Morpholino,50898
pyramidal tract,50898
anaphylactoid reaction,50898
i16,50898
sind,50898
Chain transfer,50898
chair conformation,50898
Acidaminococcus,50898
IvIg,50898
anaphylatoxins,50898
colour coding,50898
W79,50898
Sextans,50898
SLC19A1,50898
gene desert,50898
Arterioles,50898
Cleveland Clinic,50898
memory development,50898
Thyroid-stimulating hormone,50898
H9,50898
Leguminosae,50898
ISV,50898
bradycardic,50898
half-cell,50898
adenosine kinase,50898
FMISO,50898
Cadherin,50898
Edoxaban,50898
Ekofisk,50898
Cladophora,50898
SC group,50898
Calcium carbonate,50898
isobilateral,50898
IGP,50898
conchal,50898
urine flow rate,50898
Rhodophyta,50898
tazobactam,50898
sodium sulphate,50898
Butterworth,50898
contraposition,50898
Zou,50898
SCN4A,50898
weak inverse,50898
Warner Music,50898
flow motion,50898
disparate impact,50898
M119,50898
endoplasmic reticulum stress response,50898
NCAR,50898
electron volt,50898
GCIH,50898
antigen presenting cell,50898
IL-7R,50898
Tanga region,50898
Anopheles subpictus,50898
Scube1,50898
Major Facilitator Superfamily,50898
Bahia,50898
Verbenaceae,50898
cervical cap,50898
dimethyl ether,50898
Pediastrum,50898
microprocessor,50898
panmixis,50898
purpura fulminans,50898
green manure,50898
variable block sizes,50898
Leydig cell hyperplasia,50898
Halothiobacillus,50898
CTCF,50898
missed dose,50898
Arabian Peninsula,50898
fast marching method,50898
Proguanil,50898
reflex arc,50898
Brevicoryne,50898
nicotinamide adenine dinucleotide,50898
NICE guidelines,50898
stromatolitic,50898
Leandra,50898
orthophoto,50898
Planck length,50898
LPR,50898
Pentax,50898
carbamoyl phosphate synthase,50898
Rieske iron-sulfur protein,50898
HGF/SF,50898
crack-cocaine,50898
Very Long Baseline Interferometry,50898
Carbonic anhydrase,50898
Liraglutide,50898
DNA binding site,50898
Ciliate,50898
tocopherol,50898
Toll-like receptors (TLR),50898
alkylating agent,50898
W56,50898
vinyl group,50898
Anthocoris,50898
Atacama Large Millimeter/submillimeter Array,50898
Facial weakness,50898
dasabuvir,50898
agrochemical,50898
Aortic valve replacement,50898
halophytic,50898
Isabela,50898
potato virus X,50898
CD24,50898
Antithrombotic,50898
severe congenital neutropenia,50898
reverse micelles,50898
freely established,50898
sex worker,50898
vulnerable species,50898
geometrical frustration,50898
Cherenkov radiation,50898
cancer vaccine,50898
Colchicine,50898
Q. robur,50898
endoglycosidase,50898
hydrothermal fluid,50898
paleoecological,50898
fibrosarcoma,50898
fetal hemoglobin,50898
Carteolol,50898
TASMA,50898
Gelidiaceae,50898
osmotic lysis,50898
benthos,50898
coconut palm,50898
Community mobilization,50898
determiner,50898
hyperprolactinemia,50898
Thaumarchaeota,50898
Fredericia,50898
myotubularin,50898
Accipiter,50898
kermes,50898
False Discovery Rate,50898
folate pathway,50898
Neuchatel,50898
Cyclin A2,50898
statistical independence,50898
equipotential,50898
blastomere,50898
secondary lens,50898
C4B,50898
Fosb,50898
shark liver,50898
pterostilbene,50898
Salmacina,50898
analytic continuation,50898
kynurenine pathway,50898
GMB,50898
suprasegmental,50898
EVD,50898
Drosha,50898
epifluorescence,50898
RHA,50898
Colpophyllia,50898
sirtuin,50898
Median absolute deviation,50898
Chemotaxis,50898
mGluR1,50898
Desulfovibrio vulgaris,50898
threefolds,50898
Chromogranin A,50898
opioid withdrawal,50898
fibre bundle,50898
Intracranial hemorrhage,50898
PVM,50898
Ivory Coast,50898
Dvl1,50898
Rho GTPase,50898
anatomic variant,50898
Entropy,50898
BBA,50898
ustekinumab,50898
costal cartilage,50898
protoporphyrin IX,50898
ces,50898
pelvic fracture,50898
Microcephaly,50898
Zif268,50898
Endothelial cell,50898
ISDN,50898
human immunodeficiency viruses,50898
Pangani river,50898
ArcA,50898
Gallus gallus,50898
antiarrhythmic agent,50898
periphrastic,50898
trisomy 8,50898
Orcadian Basin,50898
premalignant condition,50898
loviride,50898
PKLR,50898
CCKB,50898
chromophobe,50898
Anthozoa,50898
radioligand binding assay,50898
Piperacillin,50898
mental health nurse,50898
slepton,50898
MTCH2,50898
synapomorphies,50898
Glutamate,50898
single-domain,50898
demographic analyses,50898
vibrational energy relaxation,50898
Rigshospitalet,50898
Rosaceae,50898
gravitational potential energy,50898
root hair,50898
FRAP,50898
S&P 1500,50898
hexokinase II,50898
Comamonas testosteroni,50898
racemisation,50898
Retrograde amnesia,50898
inhumanity,50898
intermuscular coherence,50898
W62,50898
glycogenolysis,50898
Dio2,50898
Atelopus bomolochos,50898
end-to-end vector,50898
Chromosome 13,50898
heart attack,50898
ectothermic,50898
Chain propagation,50898
Pulse pressure,50898
GENCOM,50898
Jessica McCormack,50898
R73,50898
chaetognaths,50898
GLI1,50898
Arizona Radio Observatory,50898
molecular lesion,50898
palpebral fissure,50898
dragonfly,50898
J1,50898
thioesterase,50898
high throughput sequencing,50898
Silt,50898
GPR56,50898
Ryr2,50898
GABRA6,50898
coupling coefficient,50898
replication stress,50898
core-mantle boundary,50898
pedogenesis,50898
stationary process,50898
quadraparesis,50898
Sunnyvale,50898
firewall,50898
R-symmetry,50898
E. coli K-12,50898
E1cb,50898
OSS,50898
molecular phylogenetic,50898
Human Metabolome Database,50898
SMARCA2,50898
secretogranin II,50898
extraterrestrial life,50898
ansatz,50898
non-nucleoside reverse transcriptase inhibitors,50898
fim,50898
lansoprazole,50898
simulation-based optimization,50898
Th0 cell,50898
pontine tegmentum,50898
Biville,50898
rift zone,50898
geodatabase,50898
Gomel region,50898
Delta Fosb,50898
Cactaceae,50898
EC2,50898
on-line system,50898
lymphoedema,50898
Voacanga africana,50898
minimal supersymmetric Standard Model,50898
apomictic,50898
PEX5,50898
ammonium chloride,50898
oculomotor nerve,50898
positron-emission tomography,50898
pericenter,50898
M-R,50898
mould,50898
operculate,50898
bauxite,50898
NDGA,50898
plasma etching,50898
cyclooxygenase-1,50898
poor kidney function,50898
Diploria,50898
Square Kilometre Array,50898
Mafia island,50898
Milankovitch theory,50898
Anopheles aconitus,50898
JHEP,50898
graft-versus-tumor,50898
mythology,50898
model-based reasoning,50898
mortality salience,50898
graffiti,50898
pyrogens,50898
flexor pollicis longus,50898
feline immunodeficiency virus,50898
organic compound,50898
Hylobates moloch,50898
Polychaeta,50898
NWO,50898
time-frequency representation,50898
constraint programming,50898
herpes zoster vaccine,50898
Air Passenger Duty,50898
Table Bay,50898
smoking cigarettes,50898
Metro Cebu,50898
pteridophytes,50898
meromictic lake,50898
Sudhir Venkatesh,50898
British Academy,50898
Soviet famine,50898
urban geography,50898
isomorph,50898
globalism,50898
Esprit,50898
iterative learning control,50898
GRB 130427A,50898
Panchenko,50898
Newsweek,50898
tax evasion,50898
Liverpool Football Club,50898
partial differential operator,50898
chemical genetics,50898
ketoacid,50898
5-methyluridine,50898
granular matter,50898
data preprocessing,50898
planar limit,50898
Schwarzian derivative,50898
Wissenschaft des Judentums,50898
keystone species,50898
stomatopod,50898
e-infrastructure,50898
Poecilosclerida,50898
dextrocardia,50898
Dirichlet-to-Neumann operator,50898
cognitive enhancer,50898
Times Higher Education World University Rankings,50898
chain transfer,50898
opportunistic pathogen,50898
Reflexivity,50898
Question Time,50898
mate fidelity,50898
cysteine-,50898
WAXD,50898
adverbial clause,50898
electrogram,50898
visual works,50898
psoriasis vulgaris,50898
passivating,50898
protein-energy malnutrition,50898
acetyl coenzyme A,50898
carpus,50898
type III secretion system,50898
stereogenic center,50898
CO2 sensor,50898
posterior capsulotomy,50898
Belgian television,50898
Don Quijote,50898
pyridaben,50898
"Cognitive, Affective, & Behavioral Neuroscience",50898
Galois fields,50898
Dugesia,50898
Leishmania major,50898
Research question,50898
Grid search,50898
dental crown,50898
Rankin-Selberg,50898
xenophobia,50898
AEG,50898
neologism,50898
oral rehydration solution,50898
urban agglomeration,50898
Full Spectrum,50898
podocalyxin,50898
Anura,50898
Pareto optimality,50898
Cabauw,50898
positive-sense,50898
health central,50898
Binding protein,50898
gas sensor,50898
Jellinek,50898
ATP8B1,50898
PPK,50898
Shannon entropy,50898
Cluster Analysis,50898
timelike,50898
mira variable,50898
pi Josephson junction,50898
tatonnement,50898
energy momentum tensor,50898
red tape,50898
Taylor dispersion,50898
Rangers,50898
New Haven,50898
Fasciola hepatica,50898
Pterois,50898
Lewy body dementia,50898
Baill.,50898
product differentiation,50898
Eija-Liisa Ahtila,50898
thyrotropin receptor,50898
L-Band,50898
problem-based learning,50898
sociological theory,50898
Mount Frere,50898
Hardy space,50898
bad press,50898
minitel,50898
flash-lamp,50898
Royal Netherlands East Indies Army,50898
Medical Informatics,50898
adrenal carcinoma,50898
environmental assessment,50898
church attendance,50898
semi structured interviews,50898
teno,50898
Vanguard,50898
in-vitro fertilisation,50898
complexification,50898
zoonosis,50898
discrete subgroup,50898
Flemish language,50898
Nicholas Barberis,50898
profunda femoris artery,50898
fatty alcohol,50898
echoic memory,50898
trabeculectomy,50898
attractive strength,50898
co-agonist,50898
Tide gauge,50898
threatened species,50898
hypercube,50898
family reunification,50898
Galerkin method,50898
pair distribution function,50898
INTERNATIONAL SIGN,50898
Cladocera,50898
fibrofatty tissue,50898
silicon oxynitride,50898
hierarchical linear modeling,50898
closeness centrality,50898
channel capacity,50898
land rush,50898
angiotensin-converting enzyme (ACE) inhibitors,50898
Provocation Test,50898
Rossby,50898
Markov Random Field,50898
Diffuse large B-cell lymphoma,50898
K2CO3,50898
octadecene,50898
social engineering,50898
latent tuberculosis,50898
Trinity College,50898
Qualitative Reasoning,50898
loss reserving,50898
viral hemorrhagic fever,50898
Chow ring,50898
Monty Hall problem,50898
carotid artery stenting,50898
blood smear,50898
saprophyte,50898
spontaneous symmetry breaking,50898
typhoid,50898
masochism,50898
travelling wave,50898
cutis marmorata telangiectatica congenita,50898
carbon-rich evolved stars,50898
RSC,50898
regioisomer,50898
ad hominem,50898
role-playing game,50898
Hopfield,50898
atmospheric stratification,50898
proton emission,50898
NPC1,50898
MRC1,50898
knowledge engineers,50898
hydronium,50898
Heliconia,50898
waiting rooms,50898
parasitophorous vacuole,50898
Phelsuma grandis,50898
Rindler space,50898
WILLD.,50898
group Ib,50898
tensor invariants,50898
LCST,50898
Quantum confinement,50898
Hadamard,50898
Systemic Lupus Erythematosus (SLE),50898
hyperplane arrangement,50898
epizootic,50898
corneal ulcer,50898
spiral galaxy,50898
arthrogram,50898
Weinreb amide,50898
Zuidas,50898
school leaving age,50898
2012 election,50898
EDN,50898
E32,50898
anthocyanin biosynthesis,50898
transrectal ultrasonography,50898
norbornane,50898
Pentane,50898
galactic bulge,50898
smoking ban,50898
Tangsa,50898
Class II cavities,50898
sphingolipidoses,50898
Eurydice,50898
complementary medicine,50898
International Normalized Ratio,50898
Tanagra,50898
Okinawan,50898
Unemployment benefits,50898
Modafinil,50898
ground speed,50898
Antipsychotics,50898
circuit complexity,50898
sequential logic,50898
Cnidus,50898
microfauna,50898
stock-taking,50898
Dhofar,50898
Web Ontology Language (OWL),50898
Cyclotron,50898
maximum-likelihood estimation,50898
free variable,50898
pure-strategy,50898
Dynamic Epistemic Logic,50898
Summer Lovers,50898
numerical stability,50898
Digital Bibliography & Library Project,50898
traumatology,50898
menisci,50898
OW,50898
mortgage markets,50898
yellow hypergiant,50898
algebraically special,50898
Casimir operator,50898
Internet Service Providers,50898
institutionalist perspective,50898
Gilpin,50898
SVO,50898
flank pain,50898
eclipsing binary,50898
Spondylarthropathy,50898
high-altitude cerebral edema,50898
major operation,50898
quantitative effects,50898
NGC 7027,50898
big q-Jacobi polynomials,50898
MSDs,50898
FGF2,50898
East Eifel volcanic field,50898
fair division,50898
Relativistic Heavy Ion Collider,50898
"45,X",50898
vertex-transitive,50898
Cilazapril,50898
Sherwood,50898
Masirah Island,50898
natural transformation,50898
Langevin dynamics,50898
Lao PDR,50898
candidosis,50898
OCR,50898
Sundaland,50898
retrovirology,50898
truss,50898
Julian,50898
Global South,50898
server computer,50980
T2K,50898
Favia fragum,50898
Tegafur,50898
aphasic,50898
"1,2,3-triazoles",50898
N6,50898
iridectomy,50898
competitive equilibrium,50898
isomonodromic deformation,50914
Oriental Honey-buzzard,50898
shape risk,50898
program slicing,50898
orthostatic intolerance,50898
Expert systems,50898
NGC 6946,50898
drug trial,50898
spatial interpolation,50898
abrupt climate change,50898
social distancing,50898
democratic self-government,50898
Hypogonadism,50898
conversation theory,50898
collective variables,50898
work unit,50898
formamide,50898
113 stations,50898
persistent systems,50898
RRAs,50898
piperylene,50898
CHMI,50898
Ordinal regression,50898
dichlorophenylphosphine,50898
Western Palaearctic,50898
uncertain terms,50898
Blainville,50898
W-algebra,50898
implantology,50898
seigniorage,50898
fulminant infections,50898
Nematostella vectensis,50898
external occipital protuberance,50898
Yellowstone National Park,50898
MCAR,50898
debit card,50898
Computer vision,50898
thought suppression,50898
toxic epidermal necrolysis,50898
electromagnetic spectrum,50898
plexiglas,50898
orthogonal matrix,50898
COY,50898
shift schedule,50898
experiential avoidance,50898
industry self-regulation,50898
Eritrea,50898
medullary canal,50898
particle velocity,50898
progressive outer retinal necrosis,50898
Sackett,50898
malignant astrocytoma,50898
Enterprise,50898
NIVA,50898
internal iliac artery,50898
Geel,50898
quantum gate,50898
standard molar entropy,50898
polio eradication,50898
stakeholder concept,50898
Vernon,50898
signaling lipid,50898
Blue Cone Monochromacy,50898
planet migration,50898
health impact assessment,50898
Calabi-Yau manifold,50898
apocenter,50898
Amastatin,50898
Eosinophil,50898
Gba2,50898
Japanese Industrial Standard,50898
Proctocolectomy,50898
stroke symptoms,50898
LRAT,50898
psychotomimetic,50898
isovolumetric,50898
fimbriatum,50898
pancreatic enzyme replacement therapy,50898
dimethylglycine,50898
Coron,50898
Egr2,50898
W71,50898
Ceriantharia,50898
Dodecaceria,50898
riboswitch,50898
chelicera,50898
rigid gas permeable,50898
Fadogia,50898
W19,50898
Stroma,50898
Coronary stenting,50898
lofexidine,50898
direct limit,50898
Iron oxide nanoparticles,50898
Atp2a2,50898
GRIP-1,50898
Interstadial,50898
l-lactate dehydrogenase,50898
RARRES3,50898
Matumbi,50898
neurexin,50898
Neutrophil extracellular traps,50898
Valsartan,50898
glycidol,50898
desmocollin,50898
Rutaceae,50898
Anopheles vagus,50898
apomixis,50898
cholestane,50898
angiotensin I,50898
gencom,50898
mood stabiliser,50898
mesna,50898
subfunctionalization,50898
BCNU,50898
milliarcsecond,50898
enantiodiscrimination,50898
septal cartilage,50898
Lyngbya majuscula,50898
Kluyveromyces lactis,50898
nuclear material,50898
gene regulatory network,50898
membrane processes,50898
cardiothoracic surgeon,50898
deubiquitinase,50898
acarine,50898
postpartum infection,50898
MRPs,50898
double integral,50898
sub-additive,50898
nonverbal communication,50898
aceclidine,50898
percussions,50898
broad bean,50898
Sleep hygiene,50898
Yagi,50898
XY model,50898
Friedel oscillations,50898
Johansson,50898
spectinomycin,50898
push moraine,50898
Outlook,50898
darapladib,50898
Bedaquiline,50898
radiation resistance,50898
Pergamon,50898
postpartum psychosis,50898
Noritake,50898
Zingiberales,50898
green economy,50898
spirometer,50898
nanolithography,50898
free sugar,50898
Vertex Pharmaceuticals,50898
OLIG1,50898
Cardiopulmonary resuscitation,50898
branchial arch,50898
sequence motif,50898
disseminated cancer,50898
farnesyl pyrophosphate synthase,50898
Hypoxis hemerocallidea,50898
hidradenitis suppurativa,50898
Retrocalcaneal bursitis,50898
mira,50898
mitochondrial matrix,50898
TMB,50898
Niemann Pick disease,50898
osmotic fragility,50898
thymocyte,50898
Gata3,50898
functional divergence,50898
spongiotic,50898
Sunda Shelf,50898
The blade,50898
ecological indicator,50898
Good Manufacturing Practice,50898
Astro-H,50898
JIS,50898
ROV,50898
sinus bradycardia,50898
Montenegro,50898
Stigmella,50898
Cyp27a1,50898
Catheter ablation,50898
secretin,50898
Lorentz force,50898
fault block,50898
primary hyperaldosteronism,50898
Andersen Consulting,50898
Ccna2,50898
metonymic,50898
separation anxiety,50898
Bayes Factor,50898
TSR1,50898
Cirratulidae,50898
torticollis,50898
neural tube,50898
L. donovani,50898
GRLF1,50898
eosinophil cationic protein,50898
microtubule organizing center,50898
high wall,50898
Hommel,50898
acitretin,50898
kj,50898
Hooded Crow,50898
hyperaminoacidemia,50898
FOXG1,50898
Dogger Bank,50898
link diagram,50898
Tibotec,50898
eigenvector centrality,50898
repton,50898
NS5B,50898
v10,50898
pEC50,50898
GluR4,50898
Radiosensitivity,50898
FSTL1,50898
Internalization,50898
Asparagus densiflorus,50898
pelage,50898
high maintenance,50898
US CPI,50898
DHX9,50898
reverse T3,50898
white campion,50898
Marburg,50898
Ext1,50898
deuterated water,50898
bromoperoxidase,50898
rotational symmetry,50898
TLR8,50898
CUB domain,50898
Bdnf,50898
Cultural Studies,50898
tubal obstruction,50898
Muscle tissue,50898
Mucus,50898
Pacific tectonic plate,50898
Important Bird Area,50898
photobioreactor,50898
Passive immunity,50898
BDCA-2,50898
Bcl3,50898
vermiform,50898
ROBO2,50898
LCIS,50898
control constructs,50898
androgenic alopecia,50898
Scaphoid,50898
Latanoprost,50898
Papuan peninsula,50898
P1-derived artificial chromosome,50898
Abroma,50898
Cassie,50898
betaxolol,50898
diaspore,50898
pilocarpine,50898
Photoelectron,50898
Barnes Maze,50898
TBL1XR1,50898
DEP domain,50898
H-alpha,50898
IRC +10216,50898
CXCR5,50898
Fluid resuscitation,50898
Usselo,50898
KIF14,50898
climax vegetation,50898
ARM,50898
gamma counter,50898
Knudsen diffusion,50898
recreational diving,50898
secretory phospholipase A2,50898
Proximity Ligation Assay,50898
Oxotremorine,50898
BLIMP1,50898
Supernova,50898
Paramecium,50898
Radiation therapy,50898
toxic heavy metals,50898
diffusion limitation,50898
tubular secretion,50898
South Vietnam,50898
Medusozoa,50898
kilo-,50898
SOX9,50898
IGF-1 receptor,50898
tibiofemoral joint,50898
Corvus corone,50898
Homer1,50898
Coniochaeta,50898
The leaves,50898
GenBank,50898
PGN,50898
MYO1C,50898
Optical mapping,50898
epiglottis,50898
cocaine dependence,50898
spontaneous conception,50898
ABCD3,50898
SUMO1,50898
Congenital syphilis,50898
Funza,50898
alkyd paint,50898
Karoo,50898
U5,50898
Wind speed,50898
ChIP-on-chip,50898
Microplastics,50898
5-lipoxygenase-activating protein,50898
neutron capture nucleosynthesis,50898
E35,50898
limus,50898
tuning signal,50898
adder,50898
Malayan Peninsula,50898
Pseudonaja affinis,50898
bubble oxygenator,50898
cornix,50898
Cooloola,50898
squamous epithelia,50898
arecoline,50898
Sofia,50898
Hydrozoa,50898
CH2I2,50898
neoplastic disease,50898
basaltic andesite,50898
CFHT,50898
ciprofibrate,50898
assessment design,50898
anorexic,50898
liver X receptor,50898
HDAC1,50898
Cooper pairs,50898
Epicardial,50898
IEE,50898
Fluorescent microscopy,50898
pneumococcal infection,50898
methylcyclopentane,50898
opercula,50898
dianthus,50898
resting potential,50898
Mutsu,50898
CD29,50898
21-hydroxylase,50898
Gene conversion,50898
creole,50898
TFF3,50898
Klundert,50898
Caspase 8,50898
Chronotype,50898
oct-2,50898
SUMO2,50898
PDK,50898
DNA crosslink,50898
Uranium,50898
immunomodulatory drug,50898
Chimpanzee,50898
methaemoglobin,50898
E39,50898
cardiac conduction system,50898
Sauvage,50898
direct thrombin inhibitor,50898
Pseudonaja inframacula,50898
olein,50898
Scyphozoa,50898
cholecystostomy,50898
ecosystem engineering,50898
has1,50898
Sinus bradycardia,50898
long-term prospective study,50898
KRRs,50898
cognitive-enhancing,50898
anaphylatoxin,50898
thyroxine-binding globulin,50898
phylogeographic,50898
suspended particulates,50898
Magpie,50898
helper T cells,50898
Gastropoda,50898
macroclimate,50898
pidgin,50898
MBS,50898
Elasticity,50898
angiodema,50898
F430,50898
galanin-like peptide,50898
positional isomer,50898
homology-directed repair,50898
Pica pica,50898
Dihydroartemisinin,50898
Cambridge Neuropsychological Test Automated Battery (CANTAB),50898
aminophospholipid translocase,50898
packed red blood cells,50898
D425,50898
Contingency management,50898
osmotic fragility test,50898
Hepatitis B Virus,50898
X-linked agammaglobulinemia,50898
Tenosynovitis,50898
Glycogen,50898
Pilocarpine,50898
PANSS,50898
ruderal species,50898
styrene oxide,50898
nasopharyngitis,50898
allele specific oligonucleotide,50898
NR1,50898
meiofauna,50898
tibial arteries,50898
Sox2,50898
respiratory minute volume,50898
Bisacodyl,50898
Darapladib,50898
dark chocolate,50898
pseudogene,50898
Potamogeton,50898
B62,50898
CDR1,50898
Cd34,50898
rotational barrier,50898
pseudocholinesterase,50898
Desmosome,50898
Col1a1,50898
molarity,50898
Chromosome 15,50898
SUMO4,50898
open field test,50898
chelicerates,50898
Conch Reef,50898
Thymine,50898
copper (II) sulfate,50898
nerve cell,50898
CWP1,50898
Porifera,50898
Proinflammatory cytokine,50898
Pitx2,50898
base insertion,50898
Granulocytes,50898
SD 17,50898
SPI1,50898
holoprosencephaly,50898
prostaglandin F2alpha,50898
gamma 1,50898
structural domain,50898
glandular epithelium,50898
statistical classification,50898
carbuncle,50898
Caribbean creole,50898
Lacidipine,50898
Thomson scattering,50898
DNA Glycosylase,50898
Toxoplasmosis,50898
LabVIEW,50898
Trkb,50898
DR5,50898
SUMO3,50898
e8,50898
CGI-S,50898
vinylidene,50898
IRE1,50898
thalassemia,50898
hyperfunction,50898
Opa,50898
furuncle,50898
L30,50898
Comatose,50898
fibroblast-like synoviocyte,50898
76-0,50898
Imbrie,50898
overnutrition,50898
Mycoplasma,50898
selectively bred,50898
isolated vertices,50898
SPK,50898
KNIL,50898
submillimetre,50898
projective plane,50898
nuchal ligament,50898
fresh air,50898
soil amendment,50898
halal,50898
cannabis cultivation,50898
wedge product,50898
algebraic varieties,50898
Social Economic Council,50898
Physical attractiveness,50898
Lesser Black-backed Gull,50898
parallelogram,50898
planar chromatography,50898
unfettered,50898
periostitis,50898
haematospermia,50898
limb perfusion,50898
Leon Trotsky,50898
Tetratheca,50898
classical Marxism,50898
tu quoque,50898
paramilitary,50898
oxamate,50898
Apis mellifera,50898
quadratic growth,50898
6S,50898
inflammatory myopathy,50898
Eastern Cordillera,50898
Piotr Sztompka,50898
fetal hydrops,50898
sporting goods,50898
constant propagation,50898
transfusional iron overload,50898
Vietoris,50898
disfiguration,50898
1-form,50898
seabird,50898
circle maps,50898
left ventricular assist device,50898
social psychologist,50898
Dutch Jewish,50898
Tirana,50898
Neogonodactylus,50898
lipidoses,50898
Roman empire,50898
constraint propagation,50898
choroideremia,50898
Home care,50898
full attention,50898
redox signaling,50898
declarative knowledge,50898
Remipedia,50898
signal analysis,50898
formal methods,50898
inguinal ligament,50898
Palearctic,50898
The Pirate Bay,50898
Northeast India,50898
Adamaoua,50898
embryonic disc,50898
NR4A1,50898
retinal dysplasia,50898
binary variable,50898
Dutch Defense,50898
diploblastic,50898
glucose dehydrogenase,50898
dipole magnetic field,50898
debt crisis,50898
alcoholic liver disease,50898
lymphography,50898
phosphoribosyl pyrophosphate,50898
pistil,50898
two-dimensional NMR,50898
Haemophilus ducreyi,50898
Weiser,50898
cascade reaction,50898
Flory-Huggins,50898
Frankel,50898
PvdA,50898
Washington State,50898
Recruitment advertising,50898
social judgment theory,50898
Under pressure,50898
nociceptin,50898
Arterial pressure,50898
attention deficit-hyperactivity disorder,50898
UNCED,50898
calcareous grassland,50898
Jonathan Israel,50898
outlet glacier,50898
autarkic,50898
mesencephalic nucleus,50898
alkaliphilic,50898
Individual freedom,50898
central venous lines,50898
G28,50898
endothall,50898
Bartholdi,50898
lipid signaling,50898
Yantis,50898
flexible path,50898
dystrophia myotonica,50898
Papuan,50898
mudflat,50898
TESS,50898
Ueda,50898
birthmark,50898
Volkerak,50898
Computer-based training,50898
ontological commitment,50898
Rijswijk,50898
Waterland,50898
extravasate,50898
meta-cognition,50898
Catas Altas,50898
Interplanetary Network,50898
Munch,50898
Niger Delta,50898
vasodilators,50898
Naphthalene,50898
Amatola Mountains,50898
panopticon,50898
basilar membrane,50898
series circuits,50898
metal chalcogenide,50898
ethnic cleansing,50898
Chinese silver,50898
Systematic Biology,50898
Replagal,50898
Tabora Region,50898
Reynolds' pentad,50898
Vandermonde matrices,50898
L'Aquila,50898
acetylide,50898
Anomopoda,50898
Cerna,50898
dulcitol,50898
Larix kaempferi,50898
internalizing disorder,50898
periostosis,50898
STF,50898
back-propagation,50898
conformal symmetry,50898
HKU,50898
gonadal dysgenesis,50898
facility management,50898
good high,50898
symmetric matrix,50898
subharmonic,50898
Ectothiorhodospiraceae,50898
cognitive studies,50898
antonyms,50898
Mona Island,50898
Cebus apella,50898
Voigt profile,50898
Heliconiaceae,50898
viridans group streptococci,50898
Umayyad,50898
Griffon,50898
dot-probe task,50898
membrane reactor,50898
psychic,50898
hot companion,50898
self-shadowing,50898
magnetised,50898
Indiana,50898
nationalization,50898
CD35,50898
Peptostreptococcus magnus,50898
SN2 reactions,50898
monogamy,50898
Timisoara,50898
portal vein embolization,50898
thermochromism,50898
intracervical insemination,50898
Hamilton Depression rating scale,50898
Oriental Region,50898
pottery,50898
vasovagal response,50898
prolog,50898
ond,50898
Augustus,50898
Darling,50898
Herschel space observatory,50898
Pernis,50898
chemorepellent,50898
portacaval shunt,50898
atomic fountain,50898
macrostate,50898
Rene Girard,50898
variance function,50898
gynecologist,50898
BINAP,50898
Fasciola gigantica,50898
Nusselt,50898
Health Informatics,50898
Fournier,50898
LOGO,50898
Sraffa,50898
vexed,50898
interstitial collagenase,50898
Cameron,50898
thenardite,50898
Endoscope,50898
Relative humidity,50898
Balloon angioplasty,50898
Fallopian tube,50898
NFL,50898
Auxin,50898
For future reference,50898
logistic function,50898
occupational disease,50898
quasi-experiments,50898
TNS NIPO,50898
artesian springs,50898
melt spinning,50898
Dutch Freedom Party,50898
microvesicular steatosis,50898
negative automatic thoughts,50898
iniquitous,50898
tetrathiomolybdate,50898
false smiles,50898
Moral development,50898
L-methionine,50898
V404 Cygni,50898
romanticism,50898
Multiculturalism,50898
causal structure,50898
cyclic permutation,50898
lexicalized,50898
medial axis,50898
Russell,50898
elliptic operator,50898
talar,50898
artificial grammar learning,50898
Albert Einstein,50898
talipes,50898
cacti,50898
Resource Description Framework (RDF),50898
nanomaterial,50898
Buxaceae,50898
stony corals,50898
Primary infertility,50898
Homicide,50898
lectin affinity chromatography,50898
Indole,50898
cobweb,50898
Brokopondo,50898
grammatical framework,50898
resistance exercise,50898
single-photon avalanche diode,50898
biomedical informatics,50898
Uncertain terms,50898
color centers,50898
Caribbean Sea,50898
furnished cages,50898
askSam,50898
phenylalanine metabolism,50898
object oriented database,50898
piracetam,50898
myasthenia gravis,50898
Relative species abundance,50898
key force,50898
Formyl peptide receptor 2,50898
Ucides cordatus,50898
common femoral vein,50898
formal verification,50898
InGaAs,50898
RTAs,50898
dipole radiation,50898
photometer,50898
systems analysis,50898
Lancashire,50898
equational reasoning,50898
multicritical point,50898
Eukarya,50898
cardiac imaging,50898
OSPAR Commission,50898
mixed market,50898
Pauli vector,50898
bosonization,50898
double jeopardy,50898
political geography,50898
orthoptic,50898
global wars,50898
agroforests,50898
viral meningitis,50898
Crangonyctidae,50898
advection-diffusion equation,50898
Oz,50898
Lake Malaren,50898
unicompartmental knee arthroplasty,50898
flexor digitorum superficialis,50898
Polycyclic Aromatic Hydrocarbons (PAHs),50898
target country,50898
isomonodromic deformations,50898
Sexually Transmitted Infection,50898
Lille Vildmose,50898
De Boeck,50898
Thuringen,50898
Beta Pictoris,50898
saltation,50898
Lunar Park,50898
Bemisia tabaci,50898
FIV,50898
NGC 6940,50898
The codes,50898
proportionally fair,50898
urination,50898
computed radiography,50898
NPC2,50898
functional Magnetic Resonance Imaging (fMRI),50898
Frederik van Eeden,50898
Evolve,50898
National Park Service,50898
social scientist,50898
tebufenpyrad,50898
ditransitive,50898
Dutch masters,50898
Felix Jacoby,50898
Trypan blue,50898
Bi2Se3,50898
mental health risks,50898
Form A,50898
contour integration,50898
emic,50898
psychomotor vigilance task,50898
Tillandsia,50898
Delphi Method,50898
SD 41,50898
PEX19,50898
thyroperoxidase,50898
Source code,50898
Liverpool University,50898
Antagomir,50898
Immunoglobulin A,50898
bcl-x(L),50898
Profiler,50898
Acyrthosiphon pisum,50898
Glucose uptake,50898
Tomato juice,50898
bottom-up proteomics,50898
systemic candidiasis,50898
chloroplast DNA,50898
Scrophulariaceae,50898
tophi,50898
pauci-immune,50898
crown group,50898
RPL30,50898
diethylene glycol,50898
ethanol metabolism,50898
HdV,50898
omega 7,50898
antiallergen,50898
lipid storage disease,50898
Sierra Nevada del Cocuy,50898
GNU,50898
Tnf alpha,50898
iC4,50898
radioimmunodetection,50898
Psychostimulant,50898
Speciation,50898
Bromoform,50898
actinomycin,50898
PAR2,50898
sub-exponential,50898
conjunto,50898
lariat,50898
Spirogyra,50898
Drusen,50898
rbcL,50898
Australian plate,50898
Endocrine Society,50898
CD200,50898
carcinoid tumor,50898
Chip-on-chip,50898
EPDM rubber,50898
Goudsmit,50898
Chenopodium,50898
stereospecificity,50898
apendicitis,50898
Anidulafungin,50898
ductal carcinomas,50898
lactic dehydrogenase,50898
lead time bias,50898
BOLD FMRI,50898
axonopathy,50898
restriction site,50898
PLVAP,50898
EPDM,50898
Factor Xa,50898
Spegazzinia,50898
survivor bias,50898
ethyl iodide,50898
plane tree,50898
cytotoxic CD8+ T cells,50898
Tolstoy,50898
tetrasaccharide,50898
PDL1,50898
Heliox,50898
hepatic tumor,50898
Lasiodiplodia theobromae,50898
insertion reaction,50898
AFLD,50898
GlaxoSmithKline,50898
cone dystrophy,50898
Thomas Mann,50898
endurance sport,50898
stallion,50898
Carrot juice,50898
prow,50898
mugwort,50898
Symptomatic treatment,50898
Great Oxidation Event,50898
nonsense suppressor,50898
TRAF,50898
HindIII,50898
mayflies,50898
decision algorithm,50898
overlapping gene,50898
Daiichi-Sankyo,50898
Schopenhauerian,50898
Glacial period,50898
myeloma protein,50898
vicariant speciation,50898
parsley,50898
endoderm,50898
Sierra Nevada de Santa Marta,50898
seed storage proteins,50898
magnetica,50898
CETP inhibitor,50898
Fey,50898
sodium oxybate,50898
Meg,50898
PPARa,50898
Dipterocarpaceae,50898
Bach,50898
Cicada,50898
ependymal cell,50898
Hyaluronidase,50898
CSK,50898
hiv,50898
Attribution Non-Commercial Share Alike,50898
Schumann,50898
Enkephalin,50898
Caloric restriction,50898
vaginal prolapse,50898
North Australia,50898
flow control,50898
claret,50898
West Siberian,50898
Rockall Bank,50898
Sedgwick,50898
completely additive,50898
carbamoyl phosphate synthetase I,50898
passeriform,50898
production units,50898
Eastern Province,50898
microchip,50898
Integrated Coastal Management,50898
Krkonose Mountains,50898
path integration,50898
fibrillin,50898
Hora,50898
Plancherel measure,50898
Colletotrichum,50898
Locomotion,50898
lymph vessel,50898
black brane,50898
Bravo,50898
Pulmonary Embolism,50898
DNase I,50898
Cournot competition,50898
deaf culture,50898
Acute lymphoblastic leukemia,50898
pulmonary congestion,50898
Hexagenia limbata,50898
barometric,50898
Internal validity,50898
laser coagulation,50898
microworlds,50898
agro-chemical,50898
Miniature Neutron Source Reactor,50898
racemates,50898
ssVEP,50898
palynomorph,50898
Gyps fulvus,50898
Continuous testing,50898
serotonergic antidepressants,50898
termite mound,50898
chemical synthesis,50898
biallelic inactivation,50898
terai,50898
Close packing,50898
Twin-Twin Transfusion Syndrome,50898
Crown-rump length,50898
alternative energy,50898
Wilhelma,50898
parapatric,50898
penetrating wound,50898
quantum computing,50898
IPN,50898
OPLS,50898
Water content,50898
sodium methoxide,50898
neuronal migration disorders,50898
Sediment transport,50898
Herpyllobiidae,50898
Vicriviroc,50898
methyl phenylacetate,50898
binocular single vision,50898
non-chlorinated,50898
Lactuca serriola,50898
anisole,50898
scanning tunneling spectroscopy,50898
SCORM,50898
catalytic hydrogenation,50898
feminist theory,50898
Molepolole,50898
owner-occupancy,50898
clotting factors,50898
Catalonia,50898
George Novack,50898
Hubbard model,50898
The names,50898
Larix sibirica,50898
soda-lime glass,50898
smoothened agonist,50898
sinoatrial node cells,50898
Gennadius,50898
Karnataka,50898
cultural relativism,50898
Nectiopoda,50898
tax incidence,50898
geotectonic,50898
antimuscarinic,50898
Stochastic modelling,50898
dependence analysis,50898
extragalactic background light,50898
call centre,50898
TRUVADA,50898
Francistown,50898
Bloch equations,50898
Alcaligenes eutrophus,50898
Methylenetetrahydrofolate reductase,50898
silsesquioxane,50898
hyaluronan (HA),50898
cultural-historical activity theory,50898
quantum circuit,50898
PDMI,50898
Guzmania monostachia,50898
AGL,50898
marker chromosome,50898
samurai,50898
Antipode,50898
zonal wavenumber,50898
skull fracture,50898
linear transformation,50898
categorification,50898
technical virginity,50898
chiral symmetry breaking,50898
Marxist Economic Theory,50898
Putnam,50898
kn,50898
Servier,50898
ear diseases,50898
indo,50898
dot probe task,50898
Biological tissue,50898
two-dimensional infrared spectroscopy,50898
J31,50898
data curation,50898
personal appearance,50898
characterization theorems,50898
post-fordist,50898
implosive,50898
Hendrick Avercamp,50898
active reef,50898
Pulmonology,50898
genomic medicine,50898
logically valid,50898
proposed EU Constitution,50898
high-altitude pulmonary edema,50898
Aomori,50898
consumer welfare,50898
brain-computer interfacing,50898
child helpline,50898
wage dispersion,50898
Hambach,50898
Euler characteristic,50898
gravitational perturbation,50898
Communitarian,50898
brain structure differences,50898
tree-adjoining grammar,50898
Broken,50898
polyethyleneglycol,50898
intestinal crypts,50898
gender systems,50898
Wolinella,50898
Hellinger distance,50898
entropic forces,50898
Wind energy,50898
library science,50898
additive identity,50898
Data Management System,50898
iconological,50898
Vicia sativa,50898
planetesimal,50898
non-metastasizing,50898
drift diffusion,50898
Network theory,50898
VITA,50898
Eastern Cape Province,50898
paper density,50898
Firestone,50898
complementizer,50898
release factor,50898
Cornelius,50898
artificial selection,50898
calomel electrode,50898
unit disc,50898
George Bush,50898
Stem cell factor,50898
nonnegative matrix factorization,50898
mullet,50898
tautological ring,50898
block diagonal,50898
left common carotid artery,50898
limb-salvage,50898
Nocardia,50898
genetic clustering,50898
correlogram,50898
interwar period,50898
vielbein,50898
spinal cord disease,50898
atb,50898
Monte Carlo algorithm,50898
Pluralism,50898
Uncorrelated,50898
Netherlands East Indies,50898
interpersonal perception,50898
edible oil,50898
Sideways,50898
143 records,50898
nuclear energy,50898
parasuicides,50898
E58,50898
Tintin,50898
They.,50898
housing corporations,50898
Forensic profiling,50898
structured design,50898
Na2SO4,50898
random matrix,50898
elaiosome,50898
Michigan,50898
cnidarian,50898
anosmia,50898
population coding,50898
imperative programming,50898
Microprocessor,50898
Mauritian,50898
chronic myelogenous leukaemia,50898
Baptist,50898
break-outs,50898
genetically modified organisms,50898
Jodrell Bank Observatory,50898
display rules,50898
diphenylphosphoryl azide,50898
sodium nitrate,50898
CSF3R,50898
power set,50898
Sinoatrial,50898
Tobit regression,50898
isotopic label,50898
singular cohomology,50898
Five Eyes,50898
Disulfide bond,50898
imidazoline receptor,50898
procedural law,50898
wave method,50898
corporate rights,50898
Syria,50898
Keynesianism,50898
AC susceptibility,50898
Fourier-transform spectroscopy,50898
central extension,50898
Ludwig Wittgenstein,50898
particle astrophysics,50898
transition metal oxide,50898
perfect substitutes,50898
corneal dystrophies,50898
Karl Beth,50898
Boeing 747,50898
Chinese Sparrowhawk,50898
Throughflow,50898
ZK,50898
Mrc1,50898
American Chemical Society,50898
peptide receptor,50898
Maki,50898
Bipolar spectrum,50898
monophagous,50898
Network Description language,50898
variable lymphocyte receptor,50898
envy-free,50898
West Germanic,50898
hnRNP C,50898
Ipsos-Reid,50898
Abu Ghraib,50898
enterobacteria,50898
classical antiquity,50898
macrolides,50898
peripheral neuropathies,50898
JAK/STAT signaling,50898
methyl propiolate,50898
Bifidobacterium,50898
hyperuricemia,50898
retroelements,50898
mustard,50898
area postrema,50898
musci,50898
retrovirus,50898
phytogeography,50898
oleosin,50898
Vedic,50898
diet-dependent,50898
advaita,50898
TBX2,50898
regla,50898
pancreatic acinar cell carcinoma,50898
TBX1,50898
cellular stress response,50898
distal tubules,50898
MMP-7,50898
Cladophialophora bantiana,50898
bauplan,50898
paricalcitol,50898
Electronic Medical Records,50898
kernel methods,50898
XXVIII,50898
metabolic myopathy,50898
Hildebrandt,50898
Cyanosis,50898
wan,50898
Euro zone,50898
Hawking temperature,50898
1-decanol,50898
DKK,50898
feudal system,50898
k2,50898
Porcupine Bank,50898
capital gains,50898
Bruker,50898
orientalized,50898
political journalism,50898
Lipid peroxidation,50898
Carroll,50898
expressivism,50898
HyperCard,50898
Australia Telescope compact Array,50898
Biotinylation,50898
flavanols,50898
intraparietal sulcus,50898
flaminica Dialis,50898
cytochemistry,50898
number density,50898
connectomics,50898
generalized Riemann hypothesis,50898
Viton,50898
administration mode,50898
progressive familial intrahepatic cholestasis,50898
scattered trees,50898
Catopsis,50898
gamma ray,50898
Hahn polynomials,50898
Panel data,50898
Korean language,50898
G34,50898
superior mesenteric vein,50898
clinical psychologist,50898
eco-label,50898
supramolecular aggregates,50898
permanent cell,50898
Verschoor,50898
customer protection,50898
bronchitis,50898
optical microscope,50898
ATI,50898
by-catch,50898
cymene,50898
Socialist Labour Party,50898
materializations,50898
yttrium aluminum garnet,50898
trigrams,50898
additive approach,50898
breadth-first,50898
bed-in,50898
cladistically,50898
KHz,50898
neutrino oscillation,50898
streaming instability,50898
TREC,50898
electrodermal activity,50898
additive inverse,50898
dipole antenna,50898
CAPE,50898
Baeturia,50898
ventromedial striatum,50898
Muheza District,50898
diazirine,50898
Quench,50898
CoASH,50898
Classical period,50898
sheaf,50898
NUTS-1,50898
exoribonuclease,50898
DUMAND,50898
communicative action,50898
nitrosourea,50898
small black,50898
Solvency II,50898
Hyves,50898
great toes,50898
neo-Hookean solid,50898
Mullus,50898
lysis buffer,50898
actor-network theory,50898
untyped lambda calculus,50898
child marriage,50898
Joos de Damhouder,50898
choreoathetoid,50898
da'wa,50898
semantic relatedness,50898
punctured disk,50898
Steg,50898
Aceria guerreronis,50898
Fabrazyme,50898
abdominoplasty,50898
Light scattering,50898
microanatomy,50898
GI/G/1 queue,50898
post-exposure prophylaxis,50898
detrital food web,50898
AV nodal block,50898
pachydermoperiostosis,50898
Southern Netherlands,50898
placental insufficiency,50898
nutrition transition,50898
intersection theory,50898
angioma serpiginosum,50898
leptosporangiate,50898
Cardiothoracic surgery,50898
strange attractor,50898
Spondyloarthropathy,50898
Caesar,50898
monogenic diseases,50898
Economic globalization,50898
methyl acrylate,50898
fringing reef,50898
topical anesthetic,50898
Inoculum,50898
early psychosis,50898
vulture,50898
ESRF,50898
linear mapping,50898
Pareto optimum,50898
NRG,50898
ferrimagnet,50898
clairvoyant,50898
Rowland,50898
totalitarian,50898
charge radius,50898
primary dealer,50898
spintronic,50898
Colloidal particle,50898
N2pc,50898
kinetic control,50898
Kai Islands,50898
acyclovir,50898
Percutaneous coronary intervention,50898
moment generating function,50898
angiotensin converting enzyme inhibitors,50898
markedness,50898
mucous gland,50898
Molecular Probes,50898
Accipiter soloensis,50898
"1,4,7-triazacyclononane",50898
Bonanno,50898
move records,50898
MERCATOR,50898
Thorikos,50898
vasovagal syncope,50898
Deamination,50898
Pictor,50898
Kwara State,50898
tree traversal,50898
Neoglacial,50898
alkene isomerization,50898
arc routing,50898
peptide groups,50898
Solexa,50898
synoptic-scale,50898
Hypercalcaemia,50898
pectoralis muscle,50898
logical architecture,50898
forex,50898
Bismuth,50898
ependymoblastoma,50898
palaeoecology,50898
genomic island,50898
lightpath,50898
spinal anesthesia,50898
taz,50898
psychiatric assessment,50898
escape routes,50898
azidothymidine,50898
Diffusion Theory,50898
phased array,50898
combinatory categorial grammar,50898
Munch Museum,50898
intestinal flora,50898
differential form,50898
closed format,50898
heartbeat sounds,50898
Hypercube,50898
Murchison,50898
acanthostyles,50898
inferior frontal sulcus,50898
Bandage,50898
quicksand,50898
Coffea,50898
isotropy,50898
patronage networks,50898
AAA protein,50898
Central Valley,50898
leishmania infantum,50898
BSV,50898
adjoint representation,50898
branch-and-bound algorithm,50898
reseed,50898
Amsterdam Zuid,50898
n-pentane,50898
lithium carbonate,50898
DC-10,50898
oxygen sensor,50898
cross tolerance,50898
carbonyl ligand,50898
Somali Australians,50898
Ledeb.,50898
autotransplantation,50898
prochiral,50898
frequency ratio,50898
Madras,50898
dimethylaniline,50898
genetically modified crop,50898
pow,50898
natural gas purification,50898
micromanipulation technique,50898
Caminus,50898
risk theory,50898
His-Purkinje system,50898
tripe,50898
chitin synthase,50898
Viet Nam,50898
Driebergen,50898
LEDGF,50898
Spinal cord compression,50898
ad hominem fallacy,50898
hydrogen chloride,50898
John Kerry,50898
systematic desensitization,50898
Thomson ISI,50898
IL-7 receptor,50898
negativa,50898
pancreatic neoplasms,50898
half-marathon,50898
musical instrument,50898
derecho,50898
Oosterzee,50898
Kuyper,50898
Cancer Genome Project,50898
benzyl benzoate,50898
Mediterranean mussel,50898
Afrikaners,50898
bang-bang control,50898
summability,50898
Edinburgh Postnatal Depression Scale,50898
natural hybrid,50898
Ethology,50898
carboxymethylcellulose,50898
jet time,50898
herbarium,50898
republican Rome,50898
British Household Panel Survey,50898
EU Constitution referendum,50898
supremum,50898
Microworlds,50898
autarchic,50898
antileishmanial,50898
neurocranium,50898
D3-branes,50898
General Theory,50898
hydrolysable tannin,50898
Nucleoid,50898
Impaired vision,50898
Grenoble,50898
problem solving environment,50898
Secale cereale,50898
civil disobedience,50898
cerrado,50898
capital adequacy,50898
civic nationalism,50898
don Quijote,50898
Pimecrolimus,50898
Isotope-ratio mass spectrometry,50898
quartus,50898
immunogold labeling,50898
orbital symmetry,50898
Rydberg energy,50898
verbal periphrases,50898
pentalogy,50898
Japanese Sparrowhawk,50898
e-science,50898
Epworth Sleepiness Scale,50898
tetraethylorthosilicate,50898
paced auditory serial addition test,50898
panmictic,50898
Mustard procedure,50898
S 1,50898
meristematic tissue,50898
Filipin,50898
data type,50898
gel permeation chromatography,50898
working rat,50898
honing,50898
SEST,50898
common iliac artery,50898
anterior synechiae,50898
split gene,50898
Kenyan rift valley,50898
pedestrian detection,50898
magnetic reconnection,50898
barium sulfate,50898
D-sorbose,50898
dehydroalanine,50898
Planck spectrum,50898
Kindling model,50898
ApJL,50898
pejorative,50898
SCCP,50898
zeta-function,50898
papilloedema,50898
reverse-engineer,50898
Arrabida,50898
Bayelsa,50898
theta point,50898
continuity equation,50898
conformal bootstrap,50898
primordial plasma,50898
proton sponge,50898
NeXT,50898
unstable equilibrium,50898
white rot fungi,50898
montana,50898
Regge theory,50898
Paraffin,50898
truth-value,50898
Electronic nose,50898
bohemian,50898
life science,50898
High Tatra Mountains,50898
Micro Electro Mechanical Systems,50898
dfl,50898
Ketoconazole,50898
haemopoietic progenitor cells,50898
"walking, walking",50898
Doppler radar,50898
Preprint,50898
Insecta,50898
Huh7,50898
conceptualism,50898
data collection system,50898
Airbus 310,50898
flavodoxin fold,50898
current mood,50898
scattered radiation,50898
Dermatan sulfate,50898
middle cerebellar peduncle,50898
rotational spectroscopy,50898
phytoalexin,50898
Hirudin,50898
Femininity,50898
annihilator,50898
Artocarpus,50898
Jewish ethics,50898
Trump administration,50898
Dipterus,50898
interspecies hydrogen transfer,50898
Appendix I,50898
Peripartum cardiomyopathy,50898
conceptual definition,50898
J Virol,50898
Jan Romein,50898
Bondar,50898
loose ends,50898
Collective action,50898
polydactyl,50898
Tehuantepec,50898
Quantifier,50898
vitamin B complex,50898
buffy coat,50898
P. magnus,50898
Dhaka,50898
snare,50898
HNF1B,50898
Steric hindrance,50898
Gibbsian,50898
phonolite,50898
continental shelves,50898
scalar field theory,50898
reaction selectivity,50898
Photometric,50898
NS5A inhibitor,50898
pteridophyte,50898
United Arab Emirates,50898
Erasmus Medical Centre,50898
protein electrophoresis,50898
Machado-Joseph disease,50898
Rydberg blockade,50898
Consumer-generated media,50898
Mackenbach,50898
Jarisch-Herxheimer,50898
phase modulated,50898
ELSI,50898
Ectothiorhodospira shaposhnikovii,50898
caesium,50898
methylcellulose,50898
Carboxypeptidase,50898
German unification,50898
water volume,50898
Muheza,50898
Catholic Party,50898
Antimalarial drug,50898
Otitis externa,50898
Mycobacterium paratuberculosis,50898
Nong District,50898
rt-PCR,50898
upward closed,50898
methanolysis,50898
Genzyme,50898
unfettered market,50898
consecutive sampling,50898
Afromontane,50898
pro parte,50898
economic reconstruction,50898
tert-butylamine,50898
Fagus sylvatica,50898
Indonesian Language,50898
Instant messaging,50898
biocultural evolution,50898
The seeds,50898
DSM-IV-R,50898
Oxprenolol,50898
hyperphagic,50898
ectopic focus,50898
female genital organs,50898
Schimatari,50898
operational risk,50898
Platelet-activating factor receptor,50898
precision matrix,50898
NGC 752,50898
community-led total sanitation (CLTS),50898
Follicular lymphoma,50898
liver toxicity,50898
membrane glycoproteins,50898
Crepis capillaris,50898
metabolic bone disease,50898
content integration,50898
infinitesimal transformation,50898
cyanogenic glucosides,50898
ammonium nitrate,50898
Salp,50898
Parametrization,50898
homoclinic orbit,50898
Interventional Pulmonology,50898
transgenic expression,50898
extended versions,50898
unaccusative,50898
Sulzer,50898
Glycobiology,50898
deformation quantization,50898
recurrent laryngeal nerve paralysis,50898
Sirturo,50898
Saghala,50898
fatigue limit,50898
bidomain,50898
proof system,50898
heart rate monitor,50898
Maxima,50898
crystal momentum,50898
CAPRISA,50898
true bugs,50898
active design,50898
colorectal polyp,50898
Southern Caribbean,50898
bicyclic systems,50898
institutional theory,50898
CITES,50898
securities market,50898
Royal Dutch Navy,50898
Polynoidae,50898
Warfarin,50898
path dependent,50898
consumer capitalism,50898
operator product expansion,50898
neuter gender,50898
carbon disulfide,50898
net reproductive rate,50898
atmospheric waveguide,50898
soft supersymmetry breaking,50898
NUTS-3,50898
Pyruvate kinase deficiency,50898
Silla,50898
miombo,50898
Tien Giang Province,50898
NEMO,50898
adenylosuccinate lyase,50898
atl,50898
ethnic nationalism,50898
bubo,50898
Centaurus,50898
QT-interval prolongation,50898
beach volleyball,50898
blister,50898
internal anal sphincter,50898
benzyl alcohol,50898
Babel,50898
Secularization,50898
credit scoring,50898
torsion tensor,50898
hydrodynamic volume,50898
larynx cancer,50898
HTLV-1,50898
HIV-associated lipodystrophy,50898
ATHENA,50898
U.S. corporate tax,50898
Commissioner Flynn,50898
Conservation Biology,50898
glucuronidase,50898
plug-flow reactor,50898
hypogean,50898
beekeeper,50898
nanocrystalline material,50898
MCCP,50898
frugivorous,50898
typhoon,50898
well-founded fear,50898
peginterferon alfa-2a,50898
Prenzlauer Berg,50898
Time lost,50898
Friedel-Crafts,50898
Oaxaca,50898
capacitor,50898
Common Buzzard,50898
Duda,50898
cytoplasmic inheritance,50898
Convoluta roscoffensis,50898
acid-base extraction,50898
"1,8-bis(dimethylamino)naphthalene",50898
comoving distance,50898
diatrizoate,50898
Kilimanjaro,50898
decapods,50898
structural instability,50898
inverse curve,50898
Peptidoglycan,50898
allergic rhinoconjunctivitis,50898
victim-blaming,50898
cubic kilometre,50898
respiratory acidosis,50898
Homoptera,50898
tricolor,50898
proper hepatic artery,50898
Vanellus,50898
urbana,50898
intergovernmentalism,50898
triton X-100,50898
emim,50898
Leucine-rich repeat,50898
R Doradus,50898
unsolved problems,50898
acoplanarity,50898
enantiomeric pairs,50898
Cystosoma,50898
enteric bacteria,50898
late-type star,50898
Par4,50898
embolectomy catheter,50898
cilazapril,50898
SCOT deficiency,50898
algebraic data type,50898
priesthood,50898
Grubbenvorst,50898
Airy function,50898
medulloepithelioma,50898
Margon,50898
adaptationist,50898
commutativity,50898
Myoclonus,50898
subcutaneous infusion,50898
Gibraltar,50898
precision agriculture,50898
turpentine,50898
photostimulation,50898
lightpaths,50898
coromandel lacquer,50898
Anterograde tracing,50898
frontrunners,50898
Tap water,50898
zirconate,50898
Savannakhet Province,50898
TripAdvisor,50898
Limb-Body Wall Complex,50898
wax,50898
crop rotation,50898
ALARA,50898
social software,50898
volcano plot,50898
sadomasochistic,50898
Bayesian probability,50898
Fermi Gamma-ray Burst Monitor,50898
Falconiformes,50898
political scientist,50898
N Eng J Med,50898
Shire Pharmaceuticals,50898
two-photon absorption,50898
Rotational diffusion,50898
premature ventricular contractions,50898
Mytilus galloprovincialis,50898
political ecology,50898
Galilean geometry,50898
Betweenness centrality,50898
CypA,50898
monte carlo,50898
myosarcoma,50898
isoprenylation,50898
linearly interpolated,50898
mesotrophic lake,50898
Antoni van Leeuwenhoek,50898
congenital defect,50898
Ocypodidae,50898
self-incompatible,50898
gth,50898
fractional charge,50898
forgetting curve,50898
Makamba,50898
BJP,50898
Xenarthra,50898
power-law distribution,50898
pancreatectomies,50898
Kumi district,50898
sparged,50898
Regional Programme,50898
trapping region,50898
Lucena,50898
copulatory apparatus,50898
vulvectomy,50898
torsade de pointes,50898
permeance,50898
caddisfly,50898
pastoralism,50898
Lorentz group,50898
Cyrtomium falcatum,50898
Dichogamy,50898
Gentrification,50898
total station,50898
Optical module,50898
RRE,50898
Psychoeducational,50898
torque teno mini virus,50898
Cdc6,50898
histopathologist,50898
iniciales,50898
correcto,50898
Suv39h2,50898
protandrous,50898
supranationalism,50898
DMAN,50898
mls,50898
Rer,50898
digital camera,50898
AC-3,50898
MF59,50898
projection matrix,50898
capillary action,50898
excitotoxicity,50898
pentaquark,50898
Linear projection,50898
complete problem,50898
Tambo river,50898
genetic drift,50898
Aposymbiotic,50898
Negerhollands,50898
biosolids,50898
economica,50898
journal impact factor,50898
mECC,50898
Flash photolysis,50898
conformational entropy,50898
HD 142527,50898
grave danger,50898
Mathematics Subject Classification,50898
Carlin,50898
Kv1.4,50898
N80,50898
dual photon,50898
pendula,50898
OELs,50898
Information processing theory,50898
Polystyrene,50898
Acenocoumarol,50898
sodium borohydride,50898
adolescent sex,50898
turgor pressure,50898
apiculture,50898
Sacroiliitis,50898
ascribed status,50898
ideal mixture,50898
electroretinography,50898
Orapa,50898
computational biology,50898
Ceftriaxone,50898
NY-LON,50898
case report form,50898
Bifidobacterium breve,50898
vanellus,50898
landform,50898
riluzole,50898
visual field testing,50898
split supersymmetry,50898
Brief Psychiatric Rating Scale (BPRS),50898
bifidobacteria,50898
nitro-group,50898
Manta,50898
cpd,50898
Cicadoidea,50898
opposing views,50898
Araucaria,50898
viscous coupling,50898
HIV-1 protease,50898
gram positive,50898
Trotsky,50898
ensemble forecasting,50898
Proctoscopy,50898
Glial Fibrillary Acidic Protein (GFAP),50898
Edentata,50898
pivotal trial,50898
advanced LIGO,50898
clinal,50898
Noyori,50898
Veterans Health Administration,50898
approximation theory,50898
Agenda 2030,50898
metaphysics,50898
Riemann hypothesis,50898
RAG-1,50898
Xanthidium,50898
CUB,50898
slow rotators,50898
Shanghai,50898
AU Microscopii,50898
silver triflate,50898
erythropoiesis-stimulating agent,50898
RAPGEF3,50898
ophthalmoparesis,50898
lac operon,50898
sp(2),50898
sex club,50898
Qatar,50898
Orc1,50898
polydipsia,50898
non-radiographic axial spondyloarthritis,50898
smoothened,50898
APOBEC3G,50898
statistical theory,50898
high-definition,50898
Ursodeoxycholic acid,50898
negative frequency,50898
polyhalogenated,50898
Macrofossil,50898
Racah polynomials,50898
alpha-process,50898
gaseous content,50898
programmed electrical stimulation,50898
System 3,50898
The sperm,50898
corepressor,50898
Bombus ephippiatus,50898
photodetection,50898
Spider mite,50898
pestle,50898
COST,50898
semantic equivalence,50898
school refusal,50898
accessory pathway,50898
VOF,50898
urine culture,50898
NAOC,50898
Occlusion,50898
peripheral membrane protein,50898
tree breeding,50898
hydatid cyst,50898
xyl,50898
Sanhedrin,50898
uroliths,50898
sky brightness,50898
desktop computer,50898
Leishmania donovani,50898
Stray light,50898
baby boom,50898
neurosarcoidosis,50898
From day 1,50898
human T-lymphotrophic virus,50898
Gbe languages,50898
Antiretroviral treatment,50898
Deaf culture,50898
Southwell,50898
Echinopsis,50898
ROXY,50898
sabellids,50898
dibenzoylmethane,50898
liver neoplasms,50898
imaginary-time,50898
immune receptor,50898
Indomethacin,50898
Demetrius,50898
foramen,50898
The documentary,50898
trimethyl borate,50898
Piciformes,50898
alpha fetoprotein,50898
SLC4A2,50898
condominium,50898
Perinatal death,50898
Hexokinase,50898
orthogonal projection,50898
hit selection,50898
syrup,50898
oil rig,50898
saprobe,50898
Aperture,50898
Chitin,50898
Decision aids,50898
"Wayne, PA",50898
Metric,50898
ellipse,50898
Kayanza,50898
pretibial myxedema,50898
Neonatal Behavioral Assessment Scale,50898
sensorineural deafness,50898
insertion sequence,50898
strongyloides,50898
Extravascular,50898
onor,50898
FCB group,50898
MAP1B,50898
development life cycle,50898
ASK1,50898
US Virgin Islands,50898
cinchonism,50898
normative social influence,50898
replication timing,50898
bile duct cancer,50898
unstoppable,50898
unary operator,50898
beta Cephei,50898
equation-of-state,50898
Giant Meterwave Radio Telescope,50898
micropore,50898
torsades de pointes,50898
In Silico,50898
vase,50898
elastomer,50898
Nickel boride,50898
solar panel,50898
System Usability Scale,50898
WKB,50898
Hydroxyapatite,50898
field-programmable gate array,50898
rose bengal,50898
Amsterdam Museum,50898
somatomedin B,50898
emulsified,50898
Lope de Vega,50898
The appointment,50898
CH50,50898
resonance stabilized,50898
Modula-2,50898
megabase,50898
Letlhakane,50898
simian virus 40,50898
Causative,50898
Delos,50898
chest drainage,50898
subtribe,50898
operational risk management,50898
reviparin sodium,50898
piezo-electric,50898
CNTN6,50898
sensory gating,50898
Money demand,50898
Northern Australia,50898
Marsh Sandpiper,50898
pajek,50898
Dessie,50898
hypocretin,50898
Chromobacterium,50898
Multi dimensional scaling,50898
digital evidence,50898
GRB 170817A,50898
marine litter,50898
water saturation,50898
Passeriformes,50898
Breddin,50898
KIRREL2,50898
Speg.,50898
pan-genome,50898
KwaZulu Natal,50898
Aqueous humour,50898
doxastic logic,50898
nu-nu,50898
diazoalkane,50898
Seine,50898
pertechnetate,50898
salt bridges,50898
repeated measures design,50898
molar pregnancies,50898
Syndactyly,50898
sight word,50898
The turning point,50898
communication studies,50898
field defect,50898
rhonchi,50898
soft photons,50898
Kuwait,50898
Diabetes Management,50898
Gonochorism,50898
PTPRD,50898
Myocytes,50898
picolyl,50898
motion control,50898
national treatment,50898
delocalized electron,50898
Social movement theory,50898
CP-violation,50898
Smo,50898
TREX,50898
Common carotid artery,50898
macular dystrophy,50898
Western Australia,50898
theta rhythm,50898
congenital syphilis,50898
soil science,50898
slipped capital femoral epiphysis,50898
Duloxetine,50898
Isoleucine,50898
cytotype,50898
N-methyl-2-pyrrolidone,50898
proxy vote,50898
generation lost,50898
antiprisms,50898
Linear Temporal Logic,50898
multigenic,50898
agroinfiltration,50898
en passant,50898
holomorphy,50898
nanoindenter,50898
potassium carbonate,50898
Common Cold Unit,50898
Weak Gravity Conjecture,50898
anterior nasal spine,50898
eutherian,50898
colorimetric methods,50898
varicose vein,50898
open-string,50898
pyrolyzed,50898
ultrasound transmission tomography,50898
fetal circulation,50898
Skin conductance,50898
odf,50898
ferricyanide,50898
Ayahuasca,50898
pharyngeal arches,50898
perfect match,50898
IAUC,50898
BDSM,50898
AB Doradus,50898
Circulation Research,50898
Apple Macintosh,50898
MS-DOS,50898
Inclusion body myositis,50898
Gregory Rift valley,50898
q27,50898
Coma cluster,50898
Sorbus,50898
MELD,50898
cyclical fluctuations,50898
acid neutralizing capacity,50898
RASCH analysis,50898
Dollo,50898
EGRET,50898
parametric surface,50898
Antarctic Cold Reversal,50898
Salisbury,50898
Viereck,50898
The nose,50898
dentate nuclei,50898
Xylopia,50898
clathrin-mediated endocytosis,50898
free-streaming,50898
Elsevier science Ltd,50898
histomorphology,50898
MOCCAS,50898
electron band,50898
stimulus modalities,50898
Tringa stagnatilis,50898
lace,50898
protein disulfide isomerase,50898
archaeological site,50898
Galilean,50898
headscarf,50898
Larix laricina,50898
propagation mode,50898
"buta-1,3-diene",50898
Langendorff heart,50898
scintillometer,50898
flagship species,50898
Sulawesi,50898
NMC,50898
experience good,50898
synesthete,50898
propadiene,50898
gram-negative bacterium,50898
simple rotation,50898
Position paper,50898
Crosstalk,50898
galvanization,50898
automatic control,50898
digital microscope,50898
numerical linear algebra,50898
Neoseiulus baraki,50898
Ascomycete,50898
redox couple,50898
E 60,50898
PR-1,50898
multilingualism,50898
Bahrain,50898
acantholysis,50898
endothecium,50898
Epoxy,50898
Glycolipid,50898
catapult,50898
redox system,50898
leaf waxes,50898
Malinowski,50898
atrial natriuretic factor,50898
event horizon,50898
laissez-faire,50898
threshold energy,50898
Rheoscope,50898
embryonic connection,50898
hologram,50898
sequential hermaphroditism,50898
kernel smoother,50898
DNA-PKcs,50898
Tanner Stage,50898
rook,50898
personal budget,50898
ORF1,50898
Gitanjali,50898
preamplifier,50898
fMR1,50898
juniper,50898
Energia,50898
infinite set,50898
strider,50898
refusal skills,50898
torsional vibration,50898
fructooligosaccharide,50898
IVR,50898
Gymnocalycium,50898
Balmer lines,50898
NDA,50898
biased estimators,50898
baroclinic,50898
toxic nodular goiter,50898
Godzilliidae,50898
Sherpa,50898
oviparous,50898
condition number,50898
leg ulcer,50898
Asparagaceae,50898
scanning tunnelling microscopy,50898
otitis externa,50898
Overactive bladder,50898
QCD string,50898
fetal position,50898
2-phenylethanol,50898
The Volumes,50898
Paramecium bursaria,50898
orbicularis oris,50898
giant papillary conjunctivitis,50898
fatty liver,50898
MKK6,50898
cytogenetic map,50898
advergame,50898
immersion oil,50898
Coalgebra,50898
T-reg,50898
obstructive sleep apnea,50898
general insurance,50898
National Comprehensive Cancer Network,50898
non-governmental organisation,50898
Internet pornography,50898
Cogn.,50898
critical pedagogy,50898
post-structural,50898
New media,50898
Thyroid peroxidase,50898
Seasonal influenza,50898
nuclear power plant,50898
Sweet,50898
vector lattice,50898
Operating Room,50898
spontaneous remission,50898
biorthogonal,50898
de Rham cohomology,50898
intermittent catheterisation,50898
construal level theory,50898
polytetrafluoroethylene,50898
question answering,50898
Diabetes mellitus type 2,50898
educational measurement,50898
Haemophilia A,50898
Communication problems,50898
ROD,50898
Chern number,50898
Meru National Park,50898
AMS dating,50898
Index theory,50898
Machiavelli,50898
repertory grid,50898
maximal ideal,50898
Grin,50898
Guyanas,50898
oxazine,50898
catharsis,50898
pain play,50898
Anomalous X-ray Pulsar,50898
journal ranking,50898
mixed graph,50898
Republikaner,50898
The acreage,50898
terpolymer,50898
bicyclohexyl,50898
personal pronoun,50898
Public capital,50898
food sovereignty,50898
COPS,50898
Conflict theory,50898
Oestrus ovis,50898
aircraft noise,50898
Leitkultur,50898
popliteal lymph nodes,50898
Riluzole,50898
Promiscuity,50898
electroluminescence,50898
Ventilator-associated pneumonia,50898
ground penetrating radar,50898
anaphoric,50898
Urokinase,50898
Endoplasmic reticulum,50898
Combinatorial chemistry,50898
Ayurveda,50898
associative memory,50898
encephalocele,50898
foreign exchange reserves,50898
Lake Baikal,50898
Arbitrariness,50898
Stigmata,50898
HOMER,50898
spin-boson model,50898
immune checkpoint blockade,50898
Computational Fluid Dynamics (CFD),50898
Brugada Syndrome,50898
emergency powers,50898
gelatinases,50898
Ria Formosa,50898
rotational modulation,50898
Cultured meat,50898
Nucleotide excision repair (NER),50898
Mitochondrial DNA,50898
Fourier optics,50898
Shillong Plateau,50898
trade journal,50898
Somatic cell nuclear transfer,50898
Hadamard product,50898
nitrating,50898
Chris Hani Baragwanath Hospital,50898
antitrust law,50898
myocardial stunning,50898
Apaporis River,50898
computability theory,50898
Protein-energy malnutrition,50898
cytidine triphosphate,50898
enroute,50898
stereotactic frame,50898
Flame Nebula,50898
Cyclodextrin,50898
chemically modified electrode,50898
Prostaglandin E,50898
user-generated content,50898
Xenon,50898
International Criminal court (ICC),50898
management areas,50898
Cyclooxygenase,50898
atenolol,50898
cochlear amplifier,50898
financial models,50898
IBE,50898
symbol systems,50898
Calix,50898
SLEs,50898
French civil code,50898
intracapsular fracture,50898
ifa,50898
HCoV-OC43,50898
Body language,50898
US Congress,50898
human respiratory syncytial virus,50898
mental body,50898
massive open online courses (MOOCs),50898
Chromoblastomycosis,50898
Green-Tao theorem,50898
mucolytic,50898
Colesevelam,50898
work hardening,50898
reproductive fitness,50898
malacostracans,50898
Duvenhage virus,50898
truffle,50898
binomial series,50898
well-known text,50898
silicon wafer,50898
day hospital,50898
Fermi liquid,50898
flexor carpi ulnaris muscle,50898
predictive learning,55407
parapatric speciation,50898
contactless,50898
Tajumulco,50898
Allergen immunotherapy,50898
Philips Electronics,50898
Carbonylation,50898
vanadyl,50898
Age-related macular degeneration,50898
single-walled nanotubes,50898
Malarone,50898
scratchcard,50898
maxillary antrum,50898
Community health worker,50898
Human Computer Interaction,55421
wood ant,50898
thoracodorsal,50898
congenital lymphedema,50898
di-3,50898
RNW,50898
spontaneous emission rate,50898
Petrova,50898
Heat shock proteins,50898
interleukin-12 receptor,50898
"Weggis, Switzerland",50898
Hox gene,50898
Motility,50898
John Mollenkopf,50898
radiocarbon-dated,50898
lexical ambiguity,50898
Unconscious Thought Theory,50898
Implanon,50898
Jena,50898
amyl,50898
cell division cycle,50898
Vasomotor,50898
non-timber forest products,50898
Corynebacterium jeikeium,50898
transactional leadership,50898
B-cell chronic lymphocytic leukemia,50898
second-order logic,50898
nomological network,50898
A 73,50898
William II,50898
F-theory,50898
Computed tomography angiography,50898
Crosswise,50898
cooperative learning,50898
Instant Messaging,50898
Parthenogenesis,50898
individuals chart,50898
Quantum Hall,50898
dental arch,50898
long-chain 3-hydroxyacyl-coenzyme A dehydrogenase deficiency,50898
gated SPECT,50898
Bhabha scattering,50898
M-band,50898
political realism,50898
illicit drug market,50898
IMPALA,50898
Dyspareunia,50898
Local Area Network (LAN),50898
cannibalism,50898
Osteotomy,50898
second-price auction,50898
entertainment-education,50898
complement factor D,50898
Predatory pricing,55474
conjugate points,55475
Paul Erdos,50898
bumble bee,50898
chiral model,50898
life-cycle assessment,50898
human coronavirus NL63,50898
Mevalonate kinase deficiency,50898
sexual ethics,50898
Acanthotetilla,50898
reaction-diffusion equation,50898
Bumblebee,50898
beta-lactam antibiotic,50898
photochemotherapy,50898
Glycine transporter,50898
Fluorescence lifetime imaging,50898
Desmosterolosis,50898
social identity perspective,50898
C-arm,50898
Peano axioms,50898
green leaf volatiles,50898
young Americans,55495
threadfin,50898
k-means algorithm,50898
Redlining,50898
Sarcopterygii,50898
Estrogen receptor,50898
price fixing,50898
papyrus,50898
exit poll,50898
Comprehensive sex education,50898
tetrazine,50898
radiofrequency catheter ablation,50898
EPT,50898
ethnographer,50898
coherent anti-Stokes Raman scattering (CARS),50898
Resource allocation,50898
Tertius,50898
molecular tweezer,50898
undecidability,50898
market risk,50898
Viterbo,50898
Theranostics,50898
GRB 000131,50898
Nyanza,50898
Primary immunodeficiency,50898
Antibiotic resistance,50898
secondary compounds,50898
Eirene,50898
Overfishing,50898
Isoniazid,50898
UHE,50898
oxoglutarate dehydrogenase,50898
ecological modeling,50898
3-Methylglutaconic aciduria,50898
Exotoxin,50898
Cytomegalovirus infection,50898
Breadwinner,50898
Protein C inhibitor,50898
Chemical cross-linking,50898
SGN-40,50898
macroeconomist,50898
Dielectric heating,50898
Koninklijke Bibliotheek,50898
classical galactosemia,50898
V838 Mon,50898
Amphimedon,50898
spur-thighed tortoise,50898
copaiba,50898
Sterol carrier protein,50898
qualitative models,50898
social emotion,50898
Cape Verde Islands,50898
Ethambutol,50898
sinoatrial (SA) node,50898
centralizer,50898
World Health Assembly,50898
Ostracism,50898
reactive distillation,50898
predictive processing,50898
Hand eczema,50898
hearing damage,50898
Emperor Rudolf II,50898
K-statistic,50898
CoRoT mission,50898
process optimization,50898
fundamental plane,50898
nephrosis,50898
Melitidae,50898
Duodenal cancer,50898
Israeli Jews,50898
Craig,50898
Sea sponge,50898
GRB 011211,50898
Salmonella typhi,50898
NENU,50898
Biliary tract cancer,50898
nowness,50898
pentanol,50898
Bologna agreement,50898
Tipula,50898
interleukin 15,50898
parasympathetic stimulation,50898
G20,50898
nonsporulating,50898
Latin American literature,50898
air sacs,50898
tactile sense,50898
Gibbs paradox,50898
Atacama Large Millimeter/submillimeter Array (ALMA),50898
carotid body tumor,50898
lymphatic vasculature,50898
Neoplasms,50898
Test anxiety,50898
KamLAND-Zen,50898
BaTiO3,50898
standard cost,50898
incommensurable,50898
Free flap breast reconstruction,50898
Nsima,50898
SurveyMonkey,55594
Pelikan,50898
implicit stereotypes,50898
Stereo vision,50898
PirateBrowser,50898
Charismatics,50898
Stress-related disorders,50898
communitarian,50898
Caribbean Coot,50898
Ubiquinone,50898
supergroup,50898
cardiac action potential,50898
Ion trap,50898
utopian socialists,50898
Magnetars,50898
school choice,50898
Tashkent,50898
national romanticism,50898
RYB,50898
zooxanthellate,50898
Guadeloupe,50898
Glucose-6-phosphate dehydrogenase (G6PD) deficiency,50898
Niklas,50898
boolean algebras,50898
Scientific misconduct,50898
Episodic memory,50898
colloidal synthesis,50898
trimyristin,50898
Partha Chatterjee,50898
Sufism,50898
e-type,50898
M.E.,50898
rab,50898
nonylphenol ethoxylate,50898
ANSI,50898
Pickering,50898
Protein folding,50898
String theory,50898
fluorescent in-situ hybridization,50898
ultrasound-guided peripheral nerve block,50898
Blepharophimosis,50898
non-singular variety,50898
JARO,50898
catastrophe modeling,50898
Esscher transform,50898
Crystallization,50898
Specklinia,50898
pushout,50898
palmtop computer,50898
Hypopituitarism,50898
Low-emission vehicle,50898
Simmel,50898
parasitology,50898
Pruritus,50898
Tomato spotted wilt virus,50898
Vertisols,50898
Resigaro,50898
Pedogenesis,50898
glycosidic bond,50898
Developmental disorders,50898
multidrug-resistance,50898
Mirror matter,50898
Microquasar,50898
Papio,50898
Property law,50898
Succinyl-CoA,50898
methemoglobinemia,50898
Muon spin spectroscopy,50898
Hamming weight,55662
macrocytic,50898
Sexual violence,50898
aeolian sand,50898
Transrectal ultrasonography,50898
Amsterdam Metro,55667
intercultural education,50898
Cholinesterase,50898
domain decomposition method,50898
expectation effects,50898
Polypropylene,50898
mycoses,50898
nanoscience,50898
Tedania,50898
Microsoft SenseCam,50898
Biocatalysis,50898
STB,50898
Prolactin,50898
Bone morphogenetic protein 4,50898
Neopterin,50898
Brunner,50898
anomaly cancellation,50898
profinite,50898
microeconomic,50898
Decompression tables,50898
topologically ordered,50898
IC 348,50898
DNA hybridization,50898
Proliferative vitreoretinopathy,50898
EFL,50898
plant breeders' rights,50898
artificial kidney,50898
capacity planning,50898
CHEK2,50898
art house,50898
circuit-switched,50898
Ketene,50898
Pagani,50898
Zika virus,50898
Bayesian decision theory,50898
anecortave,50898
comparative law,50898
Goldreich,50898
aid effectiveness,50898
vertically integrated,50898
semiparametric model,50898
baby machine,50898
Cognitive control,50898
5 news,50898
Leonardo,50898
IRAS 16293-2422,50898
brain rhythm,50898
BJW,50898
guarded fragment,50898
abstract data type,50898
The Anatomy Lesson,50898
pay-what-you-want,55718
Thyroid disorders,50898
praseodymium,50898
hyperostosis,50898
Hox,50898
surfactin,50898
exponential time,50898
coppice,50898
Lewis basic,50898
ultra-luminous X-ray source,50898
digital diplomacy,50898
Primate,50898
nanocomposite,50898
exercise-induced bronchoconstriction,50898
functional differential equation,50898
Creatine monohydrate,50898
Choice Modelling,50898
shoulder dislocation,50898
cricothyrotomy,50898
nonylphenol ethoxylates,50898
Life Cycle Assessment (LCA),50898
Public participation,50898
Cell migration,50898
financial risk management,50898
hold-up,50898
Charged particle,50898
Childlessness,50898
perceptual interpretations,50898
Rel,50898
Harry Frankfurt,50898
Otospondylomegaepiphyseal dysplasia,50898
Antibody-dependent cellular cytotoxicity,50898
Khat,50898
Laurent,50898
mentally represented,50898
matrix product,50898
Apple,50898
Meningococcal meningitis,50898
multisystemic therapy (MST),50898
thermoset,50898
non-commutative geometry,50898
Programming productivity,50898
Allergic rhinitis,50898
Matrix metalloproteinase,50898
Habitat degradation,50898
unit demand,55763
stapedius muscle,50898
Beckwith-Wiedemann Syndrome,50898
Keck II,50898
cervical lymphadenitis,50898
positive discrimination,50898
Needlefish,50898
autogamous,50898
Ottawa ankle rules,50898
Euclidean geometry,50898
melanocytic naevi,50898
The arrangement,50898
Refractive errors,50898
Frequency analysis,50898
Sagitta,50898
Adriaan,50898
Fossil pollen,50898
Hepatitis E,50898
Plant litter,50898
Ganciclovir,50898
depillarization,50898
Severe combined immune deficiency,50898
ensemble Monte Carlo,50898
Afrikaans,50898
chronic pelvic pain,50898
Lucca,50898
nasalance,50898
Nabalua,50898
Fed-batch,50898
neuroculture,50898
motor neuropathy,50898
Tornio,50898
Gestalt perception,50898
David Barlow,50898
Tinea capitis,50898
calligraphy,50898
endogenous retrovirus,50898
pigmentary retinopathy,50898
elementary class,50898
bench press,50898
MaSCs,50898
Geum,50898
genitofemoral nerve,50898
Meemannia,50898
Pezizomycotina,50898
risk-benefit analysis,50898
Formica,50898
Pediatric Oncology Group,50898
Jagged1,50898
FGS,50898
non-government organization,50898
glycerides,50898
mentum,50898
Saimiri,50898
Anna Bijns,50898
paratope,50898
NGC 4051,50898
electron cryomicroscopy,50898
P. trichocarpa,50898
Devi,50898
SLC25A1,50898
Khan,50898
Higgs mechanism,50898
antiretroviral medication,50898
Manila,50898
GMO,50898
Maxwell relations,50898
type XI,50898
ARTEMIS,50898
COH1,50898
beta-agonist,50898
POLR2A,50898
Runciman,50898
stimulus discrimination,50898
efficient estimator,50898
John Snow,50898
autofocus,50898
FBLN5,50898
isochoric,50898
freshwater swamp forest,50898
potential output,50898
holarctic,50898
Macdonald polynomials,50898
MKD,50898
Luwero district,50898
carbonation,50898
Cyclin B1,50898
N8,50898
frequency doubled,50898
guanethidine,50898
Dictyonellidae,50898
absolute pitch,50898
Cyanotic,50898
GS protein,50898
germacrene D,50898
automata,50898
Glacial outwash,50898
Ayurvedic,50898
UCS,50898
DOTS,50898
MTORC1,50898
hypergeometric differential equation,50898
oxetane,50898
Sogamoso,50898
late syphilis,50898
S&M,50898
loan-to-value,50898
triangular tiling,50898
CREB-binding protein,50898
enfuvirtide,50898
comitology,50898
Epomophorus,50898
body modification,50898
porno-chic,50898
Krawtchouk polynomials,50898
Stevo Todorcevic,50898
KGA,50898
predictive checks,50898
nortriptyline,50898
competitive exclusion principle,50898
MGUS,50898
humanoid robot,50898
complex 20,50898
Xist,50898
utopian socialist,50898
non-clonal,50898
Mal,50898
approximation error,50898
Price equation,50898
Molecular mass,50898
antecubital vein,50898
BRDF,50898
Tsaratanana,50898
preterm baby,50898
EPTV,50898
rab3A,50898
uridine triphosphate,50898
dorsal fin,50898
UBF,50898
ST-segment elevation Myocardial Infarction,50898
pollen count,50898
pars planitis,50898
Barbarea vulgaris,50898
TOX,50898
inclusion compound,50898
Tween 20,50898
conjugacy class,50898
cultured meat,50898
biliary colic,50898
+350,50898
propanoate,50898
CD61,50898
epiblast,50898
water conservation,50898
NR0B2,50898
Galactomyces,50898
Middelburg,50898
DSS1,50898
rational fraction,50898
Rorippa sylvestris,50898
domatia,50898
NGC 6334,50898
benzanthracene,50898
M25,50898
mitotic catastrophe,50898
S-duality,50898
NAc shell,50898
Jodrell Bank,50898
quantitative electroencephalographic,50898
non-infectious disease,50898
DC4,50898
vanilla,50898
celiac trunk,50898
pex,50898
Cape Colony,50898
Peninsular Malaysia,50898
SRY,50898
magnetic activity cycle,50898
Optical Coherence Tomography,50898
variogram,50898
Moluccan islands,50898
susceptor,50898
PATH,50898
critical pressure,50898
LDR,50898
Francis,50898
Inpatient care,50898
TIX,50898
KALYDECO,50898
EMR4,50898
piscivorous,50898
synchronous rotation,50898
phase jitter,50898
judicial review,50898
CENP-A,50898
NANOG,50898
SMG,50898
sulfadiazine,50898
Expressed Sequence Tag,50898
Kissinger,50898
M-13,50898
Reporter gene,50898
drill bit,50898
NIHL,50898
Foxy,50898
azeotropic distillation,50898
forest fragmentation,50898
EAAT2,50898
Ingolfiellidea,50898
IOA,50898
hf,50898
Hutterites,50898
Baum-Connes conjecture,50898
multicellular organism,50898
AVF,50898
cyanopeptolin,50898
PEM,50898
Krishna,50898
Fin Whale,50898
hemangioma,50898
mixer,50898
Calluna,50898
ethyl sulfate,50898
silicon photonics,50898
AACS,50898
nbe,50898
lifelog,50898
dOR,50898
Zoophilic,50898
calcium sulfate,50898
EDN3,50898
parainfluenza,50898
composite fermion,50898
eve teasing,50898
Atlantic summer,50898
Harvard University,50898
learning impairment,50898
NICER,50898
Australopithecus,50898
daf-16,50898
PROP,50898
perinatal transmission,50898
superfield,50898
neurotensin receptor,50898
Patia,50898
beach nourishment,50898
BPO,50898
Malay,50898
Kinetic Monte Carlo,50898
BMP-4,50898
Craiova,50898
GCH,50898
interval analysis,50898
pudding,50898
Chu,50898
BRL,50898
Galeazzi fracture,50898
FOXL2,50898
small-angle x-ray scattering,50898
Fat embolism,50898
polygamous,50898
hyperoctahedral group,50898
achondroplastic,50898
Pfaffian,50898
Hallstatt,50898
Microsporum,50898
Lubomirskia baicalensis,50898
Fierenana,50898
dual-mode,50898
Dabur,50898
proboscis,50898
cleanroom,50898
Indian music,50898
TVE,50898
melanosomes,50898
electron tomography,50898
PUVA treatment,50898
Low Countries,50898
alveolar rhabdomyosarcoma,50898
gang rape,50898
Cryo,50898
F-distribution,50898
What remains,50898
Spry4,50898
co-enzyme,50898
CM-2,50898
Liver function tests,50898
B2M,50898
panhypopituitarism,50898
flotsam,50898
Little Higgs,50898
Humpback Whale,50898
DlS,50898
TAME,50898
Parenting styles,50898
AV block,50898
reversible hydrogen electrode,50898
computer memory,50898
Tracheal tube,50898
crossing number,50898
hypervelocity,50898
cut-off frequency,50898
antidiarrhoeal,50898
cervical rib,50898
H2B,50898
Epomops,50898
auramine,50898
iliohypogastric,50898
Bonferroni method,50898
prosthetic material,50898
differential rotation,50898
MLL3,50898
pHW,50898
ASAP,50898
fibrillarin,50898
Dipodascus,50898
alpha-L-fucosidase,50898
Duality,50898
scaling dimension,50898
MVR,50898
XRPD,50898
Gaussian probability distribution,50898
A32,50898
"5, 6, 7, 8",50898
IRH,50898
operation cycle,50898
Bombus pascuorum,50898
double pass,50898
NAD+,50898
shy1,50898
UN Charter,50898
logically equivalent,50898
ISK,50898
mass concentration,50898
EP300,50898
hematopoietic progenitor cell,50898
Argonaute,50898
T. tabaci,50898
third-person perspective,50898
vinyl acetate,50898
human speciation,50898
eprosartan,50898
subordinate clause,50898
auto-correlation,50898
carbasalate calcium,50898
The reflex,50898
Tikhonov,50898
Zeocin,50898
welding,50898
ICD-9,50898
honeydew,50898
tierra firme,50898
Microsporum canis,50898
ethnobotanical,50898
axi-symmetric,50898
Myriad,50898
miR-16,50898
biological fitness,50898
Tachycnemis,50898
white meat,50898
geranylgeranyl pyrophosphate,50898
Source reduction,50898
LASIK,50898
KLRG,50898
cod liver oil,50898
organic movement,50898
selected area diffraction,50898
LOFT,50898
radiative diffusion,50898
metacognitive experiences,50898
Encounter,50898
P. maximowiczii,50898
SCST,50898
toroidal graph,50898
extinction cross,50898
atomic force microscope (AFM),50898
Splice site,50898
localized aggressive periodontitis,50898
Chamorro,50898
specific humidity,50898
orbicularis oculi muscle,50898
mesopore,50898
gene expression,50898
q36,50898
Hemimorphite,50898
granulometry,50898
regolith,50898
to7,50898
MELBA,50898
Salafism,50898
anti-viral therapy,50898
Cox-2,50898
phi X 174,50898
TIM-4,50898
FeCl3,50898
3-methylindole,50898
cast iron,50898
hyponastic response,50898
computer tomography,50898
Mitomycin-C,50898
GJ 504b,50898
morphologic analysis,50898
turbofan,50898
fiberoptic bronchoscopy,50898
rockfall,50898
tortoise,50898
antiallergic,50898
Intimal hyperplasia,50898
Edge effects,50898
Luigi Illica,50898
Eunostus,50898
Plasminogen activator inhibitor-2,50898
Chulalongkorn University,50898
hyperbilirubinaemia,50898
parallelizable,50898
ampulla,50898
behavioural processes,50898
superior mesenteric vessels,50898
bounded function,50898
viral burden,50898
pectoral fin,50898
CND,50898
Microsoft Access,50898
fundamental interaction,50898
hypermultiplet,50898
Z' boson,50898
G25,50898
video-assisted thoracic surgery,50898
bicameral,50898
WASP-12,50898
PTFE,50898
chromatic adaptation,50898
algal bloom,50898
HMI,50898
SOX10,50898
PIONIER,50898
Q-switched laser,50898
folk instrument,50898
Opioid dependence,50898
Geotrichum,50898
venous stasis,50898
B. nyassanus,50898
Amputation,50898
moclobemide,50898
belching,50898
13C,50898
Logrank test,50898
isothiocyanates,50898
hyperaesthesia,50898
IRBP,50898
carbon nanoparticles,50898
cumacean,50898
VX,50898
human umbilical vein endothelial cell,50898
molecular shuttle,50898
polystyrenes,50898
Doppler weather radar,50898
Esophagectomy,50898
sphingosine kinase,50898
perirectal,50898
N. sumatrana,50898
Chironomus plumosus,50898
SMT,50898
Arxula adeninivorans,50898
1-RM,50898
Four mothers,50898
Apomixis,50898
Homo heidelbergensis,50898
Grafting,50898
A0620-00,50898
MWS,50898
Saint-Simon,50898
CNQX,50898
Vater,50898
Ouzo,50898
RAES,50898
Anders Breivik,50898
China today,50898
NGC 6440,50898
Copula,50898
Megaptera,50898
TECTA,50898
plasma frequency,50898
spectrum analysis,50898
Strathclyde,50898
Lima bean,50898
Euphorbiaceae,50898
Zostera,50898
endocardial cushions,50898
Calcipotriol,50898
flat-file,50898
Panti,50898
Chyawanprash,50898
Syk inhibitor,50898
APC mutation,50898
U-234,50898
AJCC,50898
predicable,50898
periorbital,50898
nacre,50898
quantum nonlocality,50898
Post-Traumatic Stress Disorder,50898
Turing reduction,50898
ER positive,50898
sound change,50898
magnetoelectric,50898
phonon-mediated,50898
rho Ophiuchi cloud complex,50898
B-cell activating factor,50898
Isomer,50898
Sudan IV,50898
stable distribution,50898
aziridine,50898
teak,50898
FHD,50898
Drusus,50898
mexiletine,50898
Herpes Simplex Virus,50898
silicon carbide,50898
P. elatior,50898
Eprosartan,50898
cibenzoline,50898
3-hydroxy-3-methylglutaryl-CoA,50898
transpose,50898
Period prevalence,50898
aortae,50898
calyces,50898
IOs,50898
RORC,50898
RF ablation,50898
ONB,50898
mourning wheatear,50898
Large Electron-Positron Collider,50898
c-Myc,50898
zigzag pass,50898
comprehensive performance assessment,50898
dark sector,50898
TSWV,50898
ethyl diazoacetate,50898
rancidity,50898
fecally,50898
sorne,50898
Chemical dynamics,50898
Matsumura,50898
Rousettus,50898
C. jeikeium,50898
CASQ2,50898
task-negative,50898
Dimethyl sulfoxide,50898
Gli1,50898
dihydroxyphenylglycine,50898
nitazoxanide,50898
Bernoulli-distributed,50898
The eggs,50898
bituminous,50898
Helicobacter hepaticus,50898
pulmonary aspiration,50898
collective diffusion,50898
Rhizophora,50898
flexor digitorum profundus,50898
Sphingomyelinase,50898
conservation genetics,50898
disulfide-bonded,50898
national memory,50898
Hsp20,50898
Ir-192,50898
coagulation factor VIII,50898
An Intervention,50898
shigellosis,50898
Bletiinae,50898
CLDR,50898
SWIFT J195509+261406,50898
G2000,50898
coagulation Factor VIII,50898
trichome,50898
lymphokines,50898
Alveus,50898
sea lettuce,50898
Typhlatya,50898
symbiotically,50898
Boeing 767,50898
Orsten,50898
AKR,50898
schizoid,50898
beta function,50898
Hookworm,50898
Hepatitis B immune globulin,50898
retinal degeneration,50898
colesevelam,50898
Floris,50898
R52,50898
polycondensation,50898
lexical diversity,50898
D/L,50898
RAFT,50898
CYP4F2,50898
2-hydroxybenzoic acid,50898
kappa Scorpii,50898
D-12,50898
Cross-correlation,50898
HTG,50898
XPG,50898
caddis flies,50898
fungal isolates,50898
Boidae,50898
Antennae galaxies,50898
embryo-sac,50898
bone tumor,50898
Smad3,50898
Agave,50898
hexamethonium,50898
out-crossing,50898
methine,50898
megakaryocytopoiesis,50898
LAMA2,50898
sexuality education,50898
carbonatation,50898
intraperitoneal hyperthermic chemoperfusion,50898
rabies,50898
IPCE,50898
chemical activity,50898
Hydra,50898
kinetochore,50898
Spo11,50898
Saint-Simonians,50898
human bocavirus,50898
Glucoregulation,50898
withdrawal rate,50898
Irx1,50898
DNN,50898
Northeast Asia,50898
ORACLE,50898
U.S. dollar,50898
phytoplankton bloom,50898
cerebral AVM,50898
lactamization,50898
MD data,50898
Thiocyanate,50898
CDt,50898
ocean layer,50898
Thuniinae,50898
carbenoxolone,50898
Douglas-fir,50898
Abcd1,50898
fluid solution,50898
gamma-globulins,50898
Pareto set,50898
lobe-finned fish,50898
Afro-Surinamese,50898
phosphogypsum,50898
pheneticillin,50898
Ulva lactuca,50898
Rac2,50898
regenerator,50898
dithering,50898
SCP2,50898
weak gravitational lensing,50898
SV40 large T antigen,50898
jar,50898
Zygosaccharomyces bailii,50898
secondary electron,50898
MEIS1,50898
deep squat,50898
North Island,50898
Puccini,50898
Ateles,50898
Tectona grandis,50898
interactive voice response,50898
probability density function (pdf),50898
airlift,50898
suspended solids,50898
nursing records,50898
NACO,50898
effective population size,50898
Precious,50898
configurational isomers,50898
dibenzofuran,50898
R68A,50898
conjoined twins,50898
diplacusis,50898
scissors,50898
tetrofosmin,50898
The authority,50898
fruiting body,50898
Voltage clamp,50898
conidiophore,50898
antipassive,50898
white-shouldered ibis,50898
midgut,50898
composition operator,50898
mononeuropathy,50898
Keisler,50898
autogamy,50898
Kurdish,50898
ombrotrophic,50898
lumacaftor,50898
pterygoid plate,50898
BIOSIS Previews,50898
xylanase,50898
human endogenous retrovirus,50898
Kapuas,50898
freeze-thaw cycle,50898
imidogen,50898
delusional disorder,50898
Moluccans,50898
Lyn,50898
G. urbanum,50898
habitat segregation,50898
centromere position,50898
HR diagram,50898
degradosome,50898
cisgenesis,50898
Hesperomeles,50898
phosphatidylinositol phosphate,50898
Eidolon,50898
BBS,50898
0q,50898
translation invariant,50898
proper-motion,50898
fluorenone,50898
genus group,50898
cowpea,50898
Janus,50898
photogrammetric,50898
Computational learning theory,50898
X-chromosome inactivation,50898
HspB8,50898
FRND,50898
JavaScript,50898
TESK1,50898
Becchi,50898
Anecortave,50898
Testudo,50898
nonenveloped,50898
PFU,50898
I-V curve,50898
current source,50898
Baum-Connes Conjecture,50898
lentil,50898
hereditary property,50898
gravitino,50898
linear epitope,50898
thyme,50898
neuropil threads,50898
Giles,50898
nuclear pasta,50898
alpha-actin,50898
myoblast,50898
metagenome,50898
Atyidae,50898
Oenanthe,50898
anthropophilic,50898
infrared space observatory,50898
Molinia,50898
Gli2,50898
diacid,50898
educational game,50898
P-X,50898
Anorexia,50898
kilodaltons,50898
U-duality,50898
augite,50898
chemical dynamics,50898
Phoniatrics,50898
familial status,50898
ORmen,50898
CHRF,50898
Perugia,50898
Ranomafana,50898
River Scheldt,50898
dihydroxyacetone phosphate,50898
counter culture,50898
nonane,50898
crucifers,50898
isotope ratio mass spectrometry,50898
coronary death,50898
slate,50898
MVo,50898
highly active anti-retroviral therapy,50898
hen egg,50898
haustoria,50898
zinc toxicity,50898
silica formation,50898
galactic centre,50898
bowel cleansing,50898
KADE,50898
Heterixalus,50898
bacteriology,50898
MIS 9,50898
Tinnitus,50898
mental scale,50898
zeitgeber,50898
electron tunneling,50898
Irx3,50898
aphidicolin,50898
Ay,50898
Wootters,50898
desiccation tolerance,50898
MRCP,50898
CHADS2,50898
telmisartan,50898
crista terminalis,50898
rootstock,50898
UN Millennium Development Goals,50898
L3c,50898
Spizaetus,50898
Chandra X-ray Observatory,50898
Luwero,50898
mepivacaine,50898
bitemporal,50898
X8,50898
destructive interference,50898
RGS3,50898
Hsp60,50898
OBSCN,50898
M51,50898
tetrahydropyran,50898
Westerschelde,50898
prolonged grief,50898
epileptic seizure,50898
natural science,50898
Enigma,50898
Altingia,50898
UVD,50898
percolation theory,50898
cetacean,50898
LASEK,50898
colonic inertia,50898
R406,50898
Luther,50898
MHR,50898
EOF,50898
DFG,50898
central massive object,50898
brain-computer interface,50898
electronic noise,50898
preadaptation,50898
ergative,50898
naevus,50898
HspB2,50898
external oblique,50898
Einstein metric,50898
radio interference,50898
DFC,50898
reciprocal innervation,50898
Congo Basin,50898
DASP,50898
elastica,50898
Terbutaline,50898
total organic carbon (TOC),50898
4F,50898
Hanratty,50898
patient monitors,50898
PSPACE,50898
1-nonanol,50898
activating transcription factor 4,50898
douglasii,50898
minicircle,50898
zoonotic transmission,50898
shear viscosity,50898
volatility clustering,50898
Explorer 22,50898
castanospermine,50898
stau,50898
Coxsackievirus,50898
photophobic,50898
noncoding RNA,50898
intertidal flat,50898
ganglionectomy,50898
quasitriangular Hopf algebra,50898
neuroectodermal tumors,50898
Optode,50898
Prox1,50898
noodle,50898
oenanthe,50898
TRD,50898
spectral subtraction,50898
bloodstain,50898
cal years,50898
light contrast,50898
hawthorn,50898
sPB,50898
coal seam,50898
M. scrofulaceum,50898
aminoisobutyric acids,50898
kairomone,50898
Cunninghamella,50898
Deglaciation,50898
carbohydrate-binding module,50898
NGC 5195,50898
clenbuterol,50898
torsion field,50898
heterodyne,50898
HERV,50898
dermoepidermal junction,50898
neuropilin 1,50898
LRO,50898
polygyny,50898
protein C inhibitor,50898
Sexual reproduction,50898
pleomorphic adenoma,50898
bezoar,50898
Guru,50898
signal-to-noise-ratio,50898
MDPE,50898
Hansel,50898
"1,2-hydride shift",50898
cutis laxa,50898
complete lattice,50898
Tiel,50898
TNF blockers,50898
Kassel,50898
mildew,50898
contraceptive implant,50898
quail,50898
Capsella,50898
Ashcroft,50898
GAT-1,50898
vascular bundle,50898
emergent phenomenon,50898
Spectralon,50898
Moluccan,50898
vitrinite,50898
sarcopterygian,50898
postnatal depression,50898
Iphiseiodes zuluagai,50898
osmoprotectant,50898
early syphilis,50898
leukemia inhibitory factor,50898
delayed-type hypersensitivity response,50898
angiokeratoma,50898
Five animals,50898
minor groove binder,50898
ACOX3,50898
gamma-ray burst progenitors,50898
species recognition,50898
category C,50898
BaCO3,50898
oxepane,50898
Holy Roman Empire,50898
PCAM,50898
Kt/V,50898
Musi,50898
rifampin,50898
Acta Politica,50898
carbohydrate-deficient glycoprotein syndrome,50898
passport,50898
induced pluripotent stem cell,50898
tno,50898
cryptosporidiosis,50898
Lepidocaris,50898
stomata,50898
Montagne d'Ambre,50898
RB6,50898
audiologist,50898
acacia,50898
core hydrogen burning,50898
EBI,50898
pC,50898
polar auxin transport,50898
calcination,50898
Bacteriuria,50898
conidiophores,50898
IQE,50898
Cervical rib,50898
Werauhia,50898
biotope,50898
dermatophytes,50898
ateles,50898
estradiol/progesterone,50898
Het Gooi,50898
HMG-coA-reductase,50898
slow rotator,50898
epizootiology,50898
decanol,50898
cooling curve,50898
Histomonas meleagridis,50898
renews,50898
brain morphometry,50898
genome-editing,50898
13 minutes,50898
mesophase,50898
temporal muscle,50898
W Virginis,50898
diel vertical migration,50898
vev,50898
ANRIL,50898
oxaloacetate,50898
Sycp3,50898
HGC,50898
9-cis retinoic acid,50898
SCN1B,50898
Archivo General de Indias,50898
The flies,50898
cornstarch,50898
Cell culture,50898
Histories,50898
GBD,50898
white dot syndromes,50898
BBS1,50898
TIE-2,50898
ACER,50898
Brill,50898
Petri dish,50898
CyPA,50898
anti-establishment,50898
RGS5,50898
photogrammetry,50898
static pressure,50898
demosponge,50898
photoplethysmograph,50898
talus cones,50898
Fermi liquid theory,50898
Transmission disequilibrium test,50898
Haase,50898
BSDF,50898
sexual abstinence,50898
remnant population,50898
Merlin Arthur,50898
thermal light,50898
adequate intake,50898
current version,50898
matK,50898
P27Kip1,50898
Dmc1,50898
Bombus,50898
Oxybutynin,50898
Listeria,50898
viral shedding,50898
Agostino Bonalumi,50898
E 16,50898
fungemia,50898
8 seconds,50898
toe pressure,50898
lung compliance,50898
paraoxon,50898
Stryker,50898
Haraguchi,50898
Ofatumumab,50898
schizotypal personality disorder,50898
novobiocin,50898
cerebral cavernous malformations,50898
HACEK,50898
Bremia,50898
msrA,50898
Oestrogen,50898
furfuryl alcohol,50898
hydrodynamic radii,50898
pleuritis,50898
NMR tube,50898
Gli3,50898
log-normal,50898
Batanghari,50898
Ladysmith,50898
hypolimnion,50898
serosa,50898
K9,50898
pregnancy-associated plasma protein A,50898
lose control,50898
cathinone,50898
Granulocyte colony-stimulating factor,50898
Perseus,50898
Makerere University,50898
ACE-inhibitor,50898
superficial vein thrombosis,50898
dashed,50898
KPQ,50898
PUP,50898
Seville,50898
molecular attraction,50898
HE 0437-5439,50898
ancient lakes,50898
Trichophyton violaceum,50898
alcohol withdrawal delirium,50898
Grolman,50898
XLR,50898
Unstable angina,50898
Vertical displacement,50898
cryoprobe,50898
skull roof,50898
WAXS,50898
clay mineral,50898
The Megamix,50898
azonal,50898
MM6,50898
Herculis,50898
dichotomous key,50898
tracheal tube,50898
phagosome,50898
X-ray astronomy,50898
apc,50898
endothelin 1,50898
weather radar,50898
alpha-myosin heavy chain,50898
vasotocin,50898
RGS16,50898
M. polymorpha,50898
magnetopause,50898
Minorites,50898
H-I,50898
MDRS,50898
C. pratensis,50898
ruby laser,50898
asystolic,50898
T-cell prolymphocytic leukemia,50898
maltitol,50898
P. fluorescens,50898
microsite,50898
bod,50898
capsid protein VP1,50898
statistical weight,50898
primatology,50898
glycerolipids,50898
cariporide,50898
Symmetry breaking,50898
W84,50898
phenyl acetate,50898
braincase,50898
coactivators,50898
Bel,50898
Babai,50898
Activated Sludge Model,50898
AT1R,50898
radiative efficiency,50898
conidiation,50898
UGT1,50898
gauged supergravity,50898
gamma-glutamyl transpeptidase,50898
Gadella,50898
"2,3-dihydrofuran",50898
Heuristic,50898
pin1,50898
dielectric heating,50898
AM tunnel,50898
Phenanthrene,50898
HALS,50898
Kilifi,50898
Heat Index,50898
hypesthesia,50898
certified reference materials,50898
fractalkine,50898
PDK-1,50898
Abra,50898
melanocytic nevus,50898
oocyst,50898
Capillary pressure,50898
polyalanine,50898
Qanate Kurdo,50898
metal-deficient,50898
areolar tissue,50898
Tolongoina,50898
Pinetown,50898
Bare-metal,50898
Nanofiltration,50898
NCX1,50898
Rhynie Chert,50898
SHY1,50898
pseudogamy,50898
BBS2,50898
lumbar nerve,50898
sump,50898
Musicology,50898
Yarrowia,50898
neuronal migration disorder,50898
Hyperprolactinaemia,50898
H II,50898
pac learning,50898
Pluronic,50898
mixing ratio,50898
Osmia,50898
inosine-5'-monophosphate,50898
atomic weight,50898
suprapubic catheter,50898
complex conjugate,50898
6-acetylmorphine,50898
Socs1,50898
homothetic,50898
calponin,50898
NIFT,50898
biopterin,50898
perfluorobutane,50898
muramidase,50898
lipemia,50898
magnetic confinement,50898
type Ic,50898
Hilbert series,50898
fwhm,50898
spermatic cord,50898
bioturbated,50898
ridge detection,50898
spectral sensitivity,50898
stereotaxy,50898
crown-group,50898
Sranantongo,50898
Pressor,50898
fluidization,50898
BBS4,50898
fibulin,50898
nanokelvins,50898
virucidal,50898
geitonogamy,50898
full time equivalent,50898
Mesothelioma,50898
gp38,50898
nucleus dentatus,50898
7 seconds,50898
Hemisus,50898
Mauthner cell,50898
volcanic island,50898
diglycerides,50898
aC3,50898
melanic,50898
standard candles,50898
EFW,50898
nonabelian,50898
A. fumigatus,50898
Zn3,50898
SKOS,50898
"phosphatidylinositol 3,4-bisphosphate",50898
PUVA therapy,50898
Isoproterenol,50898
VER,50898
emergence delirium,50898
Leigh disease,50898
artificial reproduction,50898
marginal branch,50898
eGFP,50898
fosinopril,50898
TH1L,50898
M. formosa,50898
sensation seeking scale,50898
nicotinic receptor antagonist,50898
x-ray magnetic circular dichroism,50898
The Independent,50898
M-V,50898
permethrin,50898
fte,50898
MRTs,50898
fission track dating,50898
gas chamber,50898
Biogeographically,50898
spikelet,50898
Meis1,50898
homogenous catalysis,50898
xylazine,50898
Solar system,50898
Dii,50898
degenerate bases,50898
histrionic personality disorder,50898
seed predation,50898
G418,50898
channelrhodopsins,50898
bathypelagic,50898
Bayesian optimization,50898
MC1R,50898
northern blot,50898
maceration,50898
Urinary retention,50898
hyperpnea,50898
dc current,50898
galactosylceramide,50898
Consolidated,50898
task-negative network,50898
433 Eros,50898
khat,50898
cdema,50898
Phrynomantis,50898
BBS5,50898
COL11A2,50898
American politics,50898
Kapustin,50898
N100,50898
Spectral imaging,50898
Liq,50898
beta-agonists,50898
immunosuppressants,50898
erythristic,50898
Herzberg,50898
6MP,50898
alcuronium,50898
Valgus,50898
CIC group,50898
Louis Bolk,50898
"phosphatidylinositol 3,5-bisphosphate",50898
large granular lymphocytic leukemia,50898
cauda,50898
CCNB1,50898
specific performance,50898
Tang,50898
Polydactylus,50898
URhGe,50898
ultimatum game,50898
Cyril Scott,50898
rose myrtle,50898
natural exponential family,50898
mesoionic,50898
A49,50898
cholecystography,50898
lobe-finned fishes,50898
Kra,50898
force gauge,50898
phospholipases C,50898
LWS,50898
Standard Error,50898
superluminal jet,50898
poor comprehenders,50898
phase equilibrium,50898
Mugla,50898
imidazopyridine,50898
UK National Lottery,50898
Pach,50898
dihydrate,50898
forensic psychiatric hospital,50898
suckers,50898
Zermelo-Fraenkel axioms,50898
Laue diffraction,50898
great saphenous vein,50898
Elephantine,50898
eyespots,50898
DNA fingerprint,50898
heteroatom,50898
Fresnel equations,50898
E01,50898
multiway data analysis,50898
mathematical psychology,50898
Centauri,50898
Tourangeau,50898
gametic phase,50898
Lie subalgebra,50898
variable star,50898
long Josephson junction,50898
aedeagal,50898
ontzuiling,50898
care pathway,50898
ergonomical,50898
charge density wave,50898
wearable camera,50898
mobile robot,50898
bonded labor,50898
two-cycles,50898
klapa,50898
The lapse,50898
choroidal neovascularization,50898
magnetization reversal,50898
herbaria,50898
Reagan administration,50898
operating theater,50898
Merton,50898
Minoan,50898
Nam Dinh,50898
business cycles,50898
iid,50898
Tacana,50898
L(R),50898
outer ear,50898
switching cost,50898
Henkin,50898
liver enlargement,50898
fullerene derivative,50898
hydrodeoxygenation,50898
XDR,50898
GIScience,50898
socialist left,50898
Tai National Park,50898
electroweak scale,50898
W115,50898
flow device,50898
string phenomenology,50898
bird's-eye view,50898
Sindhi,50898
Dachstein,50898
monomial,50898
counterconditioning,50898
Barack Obama,50898
econophysics,50898
exponential series,50898
State-building,50898
ICRISAT,50898
Epidendroideae,50898
green bean,50898
Coprinus cinereus,50898
Western Cordillera,50898
gastric fundus,50898
silk fibroin,50898
Asta Medica,50898
cholesterol absorption inhibitor,50898
weak boson,50898
Langerhans Cell,50898
Arborophila javanica,50898
Nicolaes Tulp,50898
slow manifold,50898
British English,50898
Linden,50898
family secret,50898
Atlantic cod,50898
ITU-T,50898
DSW,50898
Agro Pontino,50898
lifesaving,50898
stem structure,50898
difference operator,50898
Indignados,50898
miniaturist,50898
Business English,50898
Risk management,50898
QualTrics,55594
Catherine II,50898
American National Standards Institute,50898
polymethylhydrosiloxane,50898
Milankovitch cycles,50898
phocomelia,50898
Cyclic AMP,50898
nonfinite verb,50898
Anouk,50898
Mid-Brunhes Event,50898
Lorenz curve,50898
Parati,50898
plane curve,50898
Repertory grid,50898
food preservative,50898
Sogndal,50898
Critical Incident Stress Debriefing,50898
bad influence,50898
antipsoriatic,50898
expatriate,50898
Cultural competence,50898
passive sensing,50898
mucopolysaccharidosis type I,50898
Lisbon Agenda,50898
exascale,50898
genital pain,50898
Coursera,50898
phase estimation,50898
O-i,50898
Malay Peninsula,50898
Yugoslav,50898
ALBA,50898
L10,50898
tetrathiafulvalene,50898
International Patent Classification,50898
manganese oxide,50898
type II functional response,50898
super Yang-Mills theory,50898
real estate derivatives,50898
closed universe,50898
tau Scorpii,50898
universals,50898
D-branes,50898
glacial refugia,50898
sibling species,50898
Fibrinolysis,50898
painters' guild,50898
Sanford,50898
causal inference,50898
Manipulation checks,50898
permutation group,50898
null set,50898
carbon oxide,50898
software library,50898
delayed response task,50898
Hemiascomycetes,50898
AFGL 2591,50898
serpiginous,50898
participatory democracy,50898
ofatumumab,50898
atypical antipsychotic,50898
AIBN,50898
disability adjusted life years,50898
sustainable transport,50898
named entity,50898
cellular therapy,50898
cognitive architectures,50898
Cameraria,50898
Planetary Nebula,50898
Northern Red Sea,50898
National Instruments,50898
symbolic boundaries,50898
Patient education,50898
Malus domestica,50898
crisis communication,50898
urokinase receptor,50898
Dutch Railways,50898
Megachiroptera,50898
magnetic refrigeration,50898
macrophyte,50898
BK virus,50898
trophectoderm,50898
Ring-closing metathesis,50898
Tobit model,50898
Replicator,50898
blue collar,50898
collaborative software,50898
conflict theory,50898
sound bite,50898
self-serving bias,50898
classical thermodynamics,50898
Markov property,50898
endocrine disorder,50898
Bismarck,50898
Bora language,50898
setpoint,50898
phaeohyphomycosis,50898
Stanford University,50898
public works,50898
virtual network,50898
interventionism,50898
Diversity training,50898
Chinese Indonesian,50898
Philips Semiconductors,50898
Sarbanes Oxley,50898
Web browser,50898
Thematic Mapper,50898
error correction model,50898
social facilitation,50898
gamma-2,50898
Sub Saharan Africa,50898
Rorippa amphibia,50898
Hilversum,50898
bistable perception,50898
freshwater dolphin,50898
linguistic system,50898
prewellordering,50898
ladderane,50898
metatheory,50898
imperfectly competitive,50898
Genetic erosion,50898
Gramsci,50898
uncoupling agents,50898
dCTP,50898
Virtual Reality,50898
dependency theory,50898
trans-European transport networks,50898
intercultural communication,50898
ETV6,50898
artificial script,50898
Ptolemy I,50898
NFC,50898
cranberries,50898
Homogeneous space,50898
proarrhythmia,50898
Merseyside,50898
One programme,50898
Golay code,50898
liquidity trap,50898
COBOL,50898
Personality Assessment Inventory,50898
translation invariance,50898
quadratic space,50898
Perfluorinated compounds,50898
unit interval,50898
gambler,50898
single electron transistor,50898
bright red,50898
cognitive workload,50898
differential media,50898
Percutaneous Tibial Nerve Stimulation,50898
suburbanization,50898
tinea,50898
electric conductivity,50898
kala azar,50898
allelochemicals,50898
Prunus,50898
basic helix-loop-helix,50898
impact bias,50898
Joep Leerssen,50898
qualitative reasoning,50898
false memory,50898
sexual exploration,50898
autistic disorder,50898
villous adenoma,50898
Alleanza Nazionale,50898
ERI,50898
arsine,50898
1H-tetrazole,50898
Vlaams Belang,50898
Chartography,50898
anamorphic,50898
abelian categories,50898
Nasalis larvatus,50898
vertebral arteries,50898
liver X receptor alpha,50898
image derivatives,50898
D'Angelo,50898
Landsknecht,50898
hemoglobin-based oxygen carriers,50898
plant physiology,50898
kira,50898
optical spectrometer,50898
topological invariant,50898
elliptic genera,50898
Freire,50898
BBS6,50898
cardiac bypass surgery,50898
external oblique muscle,50898
Bullet cluster,50898
spiracle,50898
redwood,50898
germ cell tumor,50898
Necrosis,50898
RSPO1,50898
Cylindraspis,50898
MMP-13,50898
OSA group,50898
heat diffusion,50898
Thetford forest,50898
"phosphatidylinositol 3,4,5-trisphosphate",50898
digital image,50898
mevalonic aciduria,50898
NAN-190,50898
nifH,50898
Rheology,50898
vitreous gel,50898
GSK2606414,50898
dc bias,50898
epilimnion,50898
DRB4,50898
Valencian,50898
Genetically modified mice,50898
D-loop,50898
ATP1A3,50898
preservative,50898
leucocytosis,50898
Ventricular fibrillation,50898
Laser ablation,50898
hypernova,50898
Nikolaj,50898
TTF2,50898
homonymous hemianopia,50898
Tao,50898
fully normal,50898
Maddison,50898
Sulfasalazine,50898
Las Margaritas,50898
pegylation,50898
bassiana,50898
Bianchi identities,50898
CREATE project,50898
T Lymphocytes,50898
cluster B,50898
African languages,50898
reservoir host,50898
Lactococcus,50898
Indo-Portuguese,50898
Chaetomiaceae,50898
photovoltaic system,50898
entomopathogenic fungus,50898
linear least-squares,50898
thromboxane synthase,50898
parasexual cycle,50898
Lycaena ottomanus,50898
Photooxidation,50898
Colposcopy,50898
prolactinoma,50898
solder,50898
eastern savannas,50898
cholestatic jaundice,50898
stratum oriens,50898
endocardial cushion,50898
South-east Asia,50898
conchostracans,50898
metatheoretical,50898
Carbenoxolone,50898
west zone,50898
Mucoraceae,50898
SH2-,50898
neural crest cell,50898
hummingbird,50898
Tigecycline,50898
haplogroup,50898
spherocytes,50898
constructional apraxia,50898
CEs,50898
diketopiperazine,50898
hygroscopicity,50898
digital radio,50898
valinomycin,50898
Retinol,50898
ALDH6A1,50898
genital branch,50898
surrogate endpoint,50898
denaturing gel electrophoresis,50898
Peramivir,50898
Interleukin 1 receptor antagonist,50898
Monnickendam,50898
Domatia,50898
CD177,50898
gallamine,50898
alarmone,50898
Crk,50898
HP-28,50898
TGFbeta,50898
setting standards,50898
Hyperolius,50898
nadroparin,50898
caldesmon,50898
counterfeit,50898
perfluorooctane,50898
japhetic,50898
enoplids,50898
Phrynobatrachus,50898
Subcutaneous injection,50898
Tolterodine,50898
moorland,50898
perlite,50898
Continuing education,50898
Irx4,50898
hexachloroethane,50898
basal rate,50898
uterine tube,50898
REML,50898
LLE,50898
polar orbit,50898
haloarchaea,50898
methysergide,50898
buckwheat,50898
ray finned,50898
antithyroid antibodies,50898
JUPITER trial,50898
End-diastolic volume,50898
acetyl-Coenzyme A,50898
helper T cell,50898
Indochina,50898
zfs,50898
TREM1,50898
hemorrhagic cystitis,50898
Live cell imaging,50898
dielectric absorption,50898
failure analysis,50898
hemipteran,50898
guanosine tetraphosphate,50898
H-ras,50898
Thymelicus acteon,50898
Thyrotropin-releasing hormone,50898
nondeterministic,50898
Fagopyrum,50898
fundic glands,50898
wide dynamic range,50898
Supervised methods,50898
ciglitazone,50898
ookinete,50898
Twilight,50898
parietal cells,50898
Beauveria,50898
natalensis,50898
Thbs4,50898
Bayer HealthCare,50898
puma,50898
Candesartan,50898
dessication,50898
BMI2,50898
OB supergiants,50898
sound exposure,50898
AJCC staging system,50898
Factor D,50898
Palynological,50898
Whipple procedure,50898
1-aminocyclopropane-1-carboxylate,50898
invasive pneumococcal disease,50898
osteichthyan,50898
mitogenome,50898
posterior pdf,50898
bailout,50898
F-box protein,50898
poor ovarian reserve,50898
demyelinating diseases,50898
verteporfin,50898
Brevipalpus phoenicis,50898
Boechera stricta,50898
Ingelheim,50898
C3-convertase,50898
Mojokerto,50898
antihyperalgesic,50898
inselberg,50898
Velamentous cord insertion,50898
annelid,50898
Pseudophilotes vicrama,50898
internucleosomal,50898
Polysome profiling,50898
Time-resolved spectroscopy,50898
Myosin light chain,50898
elastic deformation,50898
early flight,50898
malignant pleural mesothelioma,50898
Forrest classification,50898
Ptdins3P,50898
hydrodesulfurisation,50898
SEMA3F,50898
solifenacin,50898
small heterodimer partner,50898
diffusion theory,50898
Arterial insufficiency,50898
DNAH11,50898
LOCAT,50898
Guyana Shield,50898
peripheral polyneuropathy,50898
Amerindian languages,50898
crenation,50898
sceptrin,50898
WD40,50898
Ler,50898
internal inguinal ring,50898
Iranian Plateau,50898
mast cell disease,50898
DGF,50898
EcoRI,50898
counterfeit drug,50898
Artis Zoo,50898
expressed sequence tag (EST),50898
Lipidomics,50898
Group A streptococcal infection,50898
stanol,50898
prokinetic drugs,50898
M63,50898
Pneumocystis jirovecii,50898
Janssen Pharmaceuticals,50898
alkylglycerone phosphate synthase,50898
cornflower,50898
Blitar,50898
"Rijksmuseum, Amsterdam",50898
colatitude,50898
tree rings,50898
mitochondrial ribosomal,50898
Chlorocebus,50898
No activity,50898
HUMARA assay,50898
refractory metal,50898
zoogeographical,50898
iloprost,50898
erotic stimuli,50898
alcohol oxidation,50898
Centaurea cyanus,50898
butoxamine,50898
atg16l1,50898
rhadinovirus,50898
allergy diagnosis,50898
state-dependent learning,50898
Reductive elimination,50898
cometabolism,50898
inguinal ring,50898
Suz12,50898
kernicterus,50898
World Allergy Organization,50898
sebaceous,50898
immunotolerance,50898
butterfly conservation,50898
NFkappaB,50898
Cerebral AVM,50898
Arrhenius-type,50898
iss,50898
Tenuipalpidae,50898
introgressed,50898
Venereal Disease Research Laboratory,50898
ISTS,50898
aseptic bone necrosis,50898
aryne,50898
Myd88,50898
VDRL,50898
N-glycosylation pathway,50898
FasR,50898
aminal,50898
FYVE,50898
bird flight,50898
ray-finned fish,50898
VP3,50898
voltage-dependent anion channel,50898
heparin cofactor II,50898
Coelogyninae,50898
The Absence,50898
SUVA,50898
proximal convoluted tubule,50898
afa,50898
repolarizing,50898
Apaporis,50898
Kolmogorov random,50898
Interphase,50898
Amerindian,50898
Activation energy,50898
J band,50898
intrageneric,50898
Grotthuss mechanism,50898
Five days,50898
Boechera,50898
capillary refill time,50898
conjugate function,50898
carbonyl complex,50898
turtle grass,50898
ZFP57,50898
electron cooling,50898
integrin alpha4beta1,50898
Antennapedia,50898
SOCS1,50898
AIT.,50898
Gluconeogenesis,50898
creolization,50898
sister lineage,50898
KSHV,50898
TBL1X,50898
myotube,50898
trospium,50898
cell plate,50898
gastroparesis,50898
ATF6,50898
Thalassia testudinum,50898
halluces,50898
Nortriptyline,50898
Ossetian,50898
notch ligand,50898
Amazon region,50898
dibenzothiophene,50898
TRAIL-R2,50898
colour morph,50898
glucose 6-phosphatase,50898
SUCLG1,50898
p70S6 kinase,50898
tachycardic,50898
myeloproliferative disorder,50898
Zika,50898
band emission,50898
rest pain,50898
geologic time,50898
STRA,50898
cyanopindolol,50898
MsrA,50898
Cheirolepis,50898
human vagina,50898
aposymbiotic,50898
P2X7,50898
diflubenzuron,50898
moesin,50898
ACE D,50898
Boquillas,50898
Thermal diffusion,50898
buccal smear,50898
Luminal,50898
biological oxygen demand,50898
F508del,50898
PtdIns3P,50898
Bladder cancer,50898
Liver failure,50898
actinopterygians,50898
carbenoids,50898
SOX3,50898
PRAZ,50898
interleukin 1 receptor antagonist,50898
minora,50898
winch,50898
sea grass,50898
Vlaams Blok,50898
Cohomology,50898
Orchidaceae,50898
universal memory,50898
Gd2,50898
Amsterdam university,50898
Irrawaddy river,50898
Abelian Higgs model,50898
finite group,50898
mortar,50898
Agelas,50898
Batavian revolution,50898
African ART,50898
XTE J1650-500,50898
Actinopterygii,50898
weather insurance,50898
Spanish literature,50898
Gradual,50898
buzzword,50898
Martian atmosphere,50898
Structural Information Theory,50898
membrane trafficking,50898
anti-Markovnikov,50898
Air sacs,50898
P. pastoris,50898
Rhodomyrtus tomentosa,50898
preventative healthcare,50898
GRB 050904,50898
Pseudotropheus,50898
holmium,50898
icteric,50898
Nuclear magnetic resonance (NMR) spectroscopy,50898
policy cycle,50898
order type,50898
DNA bank,50898
GAGA,50898
spontaneous process,50898
Ypres,50898
linear independence,50898
Psychiatric services,50898
Upper Mississippian,50898
linear elasticity,50898
credible intervals,50898
rest area,50898
I-D,50898
Greater Region,50898
linearized gravity,50898
symplectic structure,50898
Bleeker,50898
universal machine,50898
2.5D,50898
ground wave,50898
self-energy,50898
sustainable transportation,50898
Bootle,50898
John Foulds,50898
Gallo,50898
Hercules,50898
Green-Schwarz mechanism,50898
S-type star,50898
statistical graphics,50898
Boophis,50898
diphosphorus,50898
ojkanje,50898
Sensation Seeking Scale,50898
anti de Sitter space,50898
convolution power,50898
Dunaliella tertiolecta,50898
Upper Guinean forests,50898
cochlear implants,50898
Rho-associated protein kinase,50898
Giant Mountains,50898
paranasal sinuses,50898
Meigen,50898
red-clump,50898
programmed cell death protein 1,50898
downy oak,50898
Myoview,50898
cautiousness,50898
acetyl-coenzyme A,50898
DOP,50898
Mycenaean,50898
Quantitative genetics,50898
tristearin,50898
internal fertilization,50898
magnitude limited,50898
growth platforms,50898
coronaviridae,50898
DUS,50898
gravitational anomalies,50898
progeroid syndromes,50898
XXX,50898
clinical toxicology,50898
MANSA,50898
Economics Letters,50898
spinodal,50898
context-free,50898
C cell,50898
Geochelone,50898
peripheral myelin protein 22,50898
Chinese characters,50898
subterm,50898
solid base,50898
reflection nebulosity,50898
piscivory,50898
good deal,50898
Mingulay,50898
Ulrich Beck,50898
8-methoxypsoralen,50898
sol-gel process,50898
load balanced,50898
minimum spanning tree,50898
model-based software engineering,50898
foredune,50898
GMPLS,50898
ether phospholipid,50898
denaturalization,50898
anaphylactoid reactions,50898
D-optimal,50898
optimal stopping,50898
telephony,50898
Gauteng Province,50898
Hesp,50898
Alma-Ata,50898
densovirus,50898
glucoregulation,50898
probability mass,50898
aggregate analysis,50898
granular flow,50898
Title I,50898
open fracture,50898
actuaries,50898
Convolution,50898
psychological reactance,50898
martensitic,50898
Acatenango,50898
bitumen,50898
Guzmania,50898
Phillips Curve,50898
Chemical yield,50898
hyphen,50898
lithium diisopropyl amide,50898
MBE,50898
S.J.,50898
medical subject headings,50898
Magdalena valley,50898
nondominated,50898
TSHB,50898
breast cancer classification,50898
halting problem,50898
3d shell,50898
Caimito,50898
EPN,50898
recycling container,50898
Online communication,50898
Life cycle assessment (LCA),50898
microteaching,50898
positive interdependence,50898
Stadskanaal,50898
subexponential time,50898
active sound,50898
la Soufriere,50898
hypergeometric series,50898
cultural assimilation,50898
central Norway,50898
partial sum,50898
thianthrene,50898
skinhead,50898
diethylamine,50898
Counterproductive work behavior,50898
Kluyveromyces,50898
theta angle,50898
p-n junction,50898
Indymedia,50898
mephedrone,50898
Udacity,50898
Kit Fine,50898
racism,50898
chiral matter,50898
Palaearctic,50898
user agency,50898
Salivary gland,50898
Epitope mapping,50898
slope-forming,50898
structured learning,50898
Samuelson rule,50898
episodic buffer,50898
Morgan Russell,50898
genetically modified bacterium,50898
Caraka,50898
heat pump,50898
Mycobacterium genavense,50898
one-repetition maximum,50898
diploidy,50898
hypoxia-inducible factors,50898
methylidyne,50898
wave optics,50898
transgenic animal,50898
Thale,50898
TIFR,50898
Balaenoptera,50898
interspecific hybrid,50898
Arden,50898
sodium polystyrene sulfonate,50898
solid-state reaction,50898
Austrian pine,50898
environmental psychology,50898
hypocoagulability,50898
Gaussian mixture model,50898
Actor-Network Theory,50898
Google Trends,50898
Acrivos,50898
Computational fluid dynamics (CFD),50898
intercultural learning,50898
cleaning agent,50898
advanced trauma life support,50898
FVa,50898
pathergy,50898
Serpens,50898
geostatistics,50898
azobisisobutyronitrile,50898
platinum-resistant ovarian cancer,50898
Fortune 500,50898
erotica,50898
Woodford,50898
complement clause,50898
efficient market,50898
brachial plexus block,50898
memory fragmentation,50898
Red River Delta,50898
starlab,50898
Gated SPECT,50898
The Constant,50898
array programming,50898
oxy-hemoglobin,50898
psychotic break,50898
Cardamine pratensis,50898
avulsion,50898
Tor,50898
Formica rufa,50898
subthalamic nuclei,50898
adolescent psychiatry,50898
WELL,50898
shallow sleep,50898
multi-dimensional scaling,50898
coreference,50898
Millennium Pharmaceuticals,50898
Hemigrapsus sanguineus,50898
vowel space,50898
Whitchurch,50898
theranostic,50898
Electron capture,50898
biomanipulation,50898
0142,50898
Aortic dissection,50898
parliamentarianism,50898
The neighbourhood,50898
Frankfurtian,50898
Aramaic,50898
yeast 2-hybrid,50898
phrase structure,50898
conidiogenesis,50898
faha,50898
"Austin, TX",50898
entomopathogenic fungi,50898
exoplanetary systems,50898
Rett Syndrome,50898
discrepancy function,50898
Killing vectors,50898
magnetic domain,50898
Giuseppe,50898
Latin American Public Opinion Project,50898
constitutional referendum,50898
De Wallen,50898
variable elimination,50898
French Socialist Party,50898
NGC 6302,50898
saphenous nerve,50898
biofilter,50898
NKVD,50898
posterior predictive distribution,50898
ITW,50898
Fragmin,50898
clitoral,50898
cFLIP,50898
Sanskrit,50898
zinc-finger,50898
glycin,50898
NCX,50898
N-Cadherin,50898
ivacaftor,50898
Agrobacterium,50898
C. arabica,50898
EAAT3,50898
d-terminal,50898
microzooplankton,50898
KCNE2,50898
Lusitanian,50898
anti-TB drugs,50898
Guthrie,50898
larvicides,50898
PPARA,50898
cardiac ventricle,50898
clastic,50898
regression-kriging,50898
PAMP,50898
erectile tissue,50898
Atom Transfer Radical Polymerization,50898
anti-viral treatment,50898
membrane ruffling,50898
en.,50898
azotemia,50898
Single-nucleotide polymorphism,50898
Faeces,50898
intraclasts,50898
AKM,50898
iodocyanopindolol,50898
isoprenoids,50898
cellular excitability,50898
homoplasious,50898
Pleurothallidinae,50898
dihydrofuran,50898
bourgeois nationalism,50898
5-fluorocytosine,50898
Early Modern Times,50898
Osteoprotegerin,50898
epsin,50898
NUP98,50898
C. canephora,50898
Geographical distance,50898
blastwave,50898
THBS4,50898
allergic bronchopulmonary aspergillosis,50898
oasis,50898
Gpx2,50898
flt1,50898
flatulence,50898
RXRa,50898
PVCS,50898
oxybutynin,50898
indumentum,50898
KCNE3,50898
beta decay,50898
depot injection,50898
Inverse Compton scattering,50898
ophthalmologist,50898
UGT1A7,50898
DR2,50898
Irbesartan,50898
Clay minerals,50898
corpus striatum,50898
pleiomorphic,50898
differential signaling,50898
Id1,50898
Entomophilous,50898
PR-5,50898
Gramscian,50898
baroreceptors,50898
Paracrine signaling,50898
sorting signal,50898
creatine kinase MB,50898
omega-9,50898
N-type calcium channel,50898
Urodynamics,50898
linguistic turn,50898
Sulf2,50898
optometrist,50898
plasmalemma,50898
postcolonial studies,50898
profibrinolytic,50898
Pl.,50898
beta blocker,50898
lipid raft,50898
USP8,50898
intrinsic impedance,50898
follicular adenoma,50898
Neogyna,50898
Phosphatidylinositol 3-kinase,50898
campylobacter,50898
Lagerstatte,50898
Pholidota,50898
kallikrein 5,50898
Magdalena,50898
desmosterolosis,50898
colestyramine,50898
Klk5,50898
high power field,50898
meis1,50898
resource intensity,50898
double auction,50898
calcrete,50898
Ameland,50898
ligature,50898
Theosophical,50898
Castellon,50898
SMN2,50898
far-right,50898
competitive electricity markets,50898
workable,50898
ebony,50898
Pontryagin product,50898
Chinese Indonesians,50898
Kosovo war,50898
septicemic,50898
six-vertex model,50898
task control,50898
sampling bias,50898
short order,50898
JBL,50898
specialty chemicals,50898
apoplast,50898
Gore-Tex,50898
climate dynamics,50898
Chameleon,50898
submanifold,50898
Arkansas,50898
stateless,50898
oxiconazole,50898
Islamophobic,50898
fault tolerant,50898
sulfadoxine,50898
uncut,50898
Computer mouse,50898
Primula elatior,50898
laboratory processing,50898
profit motive,50898
Demotic,50898
Hove,50898
Yiwu,50898
congenital hemolytic anemia,50898
Weinstein conjecture,50898
Pacific Coast,50898
eukaryote,50898
South Sudanese Australians,50898
categorial grammar,50898
Selective pressure,50898
Pic du Midi,50898
Magnetic refrigeration,50898
Sindhi nationalism,50898
job scheduling,50898
ostial,50898
Saccharomyces bayanus,50898
crotyl,50898
Cantonese,50898
Viscometry,50898
single instruction multiple data,50898
Hawassa,50898
Circinus X-1,50898
town bands,50898
tellurium,50898
New Caledonia,50898
food allergies,50898
European Enlightenment,50898
Knox,50898
Duchassaing,50898
The family tree,50898
scientific computing,50898
AV nodal reentrant tachycardia,50898
delirium tremens,50898
discontinuous Galerkin method,50898
level crossing,50898
McKinsey,50898
interstellar space,50898
vector operator,50898
image differencing,50898
first-degree AV block,50898
Name Letter Task,50898
palynologists,50898
hilar lymphadenopathy,50898
Giacosa,50898
homoscedastic,50898
plant system,50898
PCL-R,50898
discontinuous function,50898
Wide Field Planetary Camera 2,50898
Bombay Stock Exchange (BSE),50898
edX,50898
Rasch Model,50898
automata theory,50898
Gali,50898
positive-pressure ventilation,50898
Israeli Defense Forces,50898
Tielt,50898
Multigroup,50898
4U 1700-37,50898
Centrumdemocraten,50898
Phosphatidylinositol 4-phosphate,50898
vascular endothelial growth factor (Vegf),50898
conic sections,50898
secondary alcohol,50898
girlfriends,50898
Wallasey,50898
Anhui Province,50898
Autocorrelation,50898
Glenn,50898
Napoleonic era,50898
Lega Nord,50898
Wilcoxon Signed-Rank test,50898
DC3,50898
complexity theory,50898
VOA,50898
antennal,50898
Amersham,50898
vector multiplets,50898
Palmitoyl-CoA,50898
10th Amendment,50898
tone burst,50898
supramolecular complex,50898
corsairing,50898
species flock,50898
Killer Whale,50898
cobordism,50898
polystyrene sulfonate,50898
maxdiff,50898
krater,50898
pediatric urology,50898
septum transversum,50898
Tuber melanosporum,50898
electron-positron collider,50898
open doors,50898
C60,50898
ray-finned fishes,50898
interjet,50898
beacon technology,50898
spin wave,50898
taus,50898
intermediate scattering function,50898
Protist,50898
NBC Nightly News,50898
compass,50898
issue networks,50898
Vannevar Bush,50898
implicit method,50898
Sami people,50898
X-block,50898
trifluoroacetic anhydride,50898
entomophagous,50898
Metazoa,50898
Brook rearrangement,50898
Scheldt Estuary,50898
spiral CT scan,50898
quasiperiodicity,50898
short message service,50898
bidirectional reflectance distribution function,50898
positive pressure ventilation,50898
sentence processing,50898
chain-ladder method,50898
FU Orionis star,50898
Zech,50898
painful feeling,50898
microsensor,50898
Zollikon,50898
Spirophorida,50898
OKM,50898
Neopetrosia,50898
GRB 050509B,50898
simple algebra,50898
object oriented,50898
trimethylamine N-oxide,50898
convergent thinking,50898
unsafe abortion,50898
lock-out,50898
volume viscosity,50898
Maclear,50898
unknown territory,50898
minimum message length,50898
P3HT,50898
perturbation series,50898
FP6,50898
United Nations Charter,50898
Rhodos,50898
PPM,50898
cloud point,50898
photometric redshift,50898
characteristic equation,50898
N. neglecta,50898
EU-15,50898
trip generation,50898
Sanofi,50898
Maltitol,50898
Interleukin-18,50898
nasal consonants,50898
Substance abuse,50898
red-giant branch,50898
belly shirts,50898
resurrection plant,50898
CCl3,50898
Sierra de los Cuchumatanes,50898
clitic,50898
Norfolk Broads,50898
stir-fried,50898
politically incorrect,50898
Extended X-ray Absorption Fine Structure,50898
fractional integration,50898
acarodomatia,50898
DML,50898
biotherapeutic,50898
vestibulodynia,50898
pinyin,50898
deconvolved,50898
Variable elimination,50898
alveolar capillary dysplasia,50898
social contract,50898
Sphingomyelin,50898
external auditor,50898
Meningitis,50898
Kos,50898
network mapping,50898
unhedged,50898
automatic garbage collection,50898
xylyl,50898
Jaundice,50898
molecular physiology,50898
Wilkie,50898
monetary transmission mechanism,50898
Pedro,50898
autoimmune reaction,50898
phyllite,50898
transculturation,50898
Eurypon,50898
Orcaella,50898
1-methylimidazole,50898
mobile genetic elements,50898
Mayr,50898
Ultimatum Game,50898
2008 presidential election,50898
cobweb model,50898
worldsheet,50898
pregnane,50898
Sucrase-isomaltase,50898
enzyme inducer,50898
OV6,50898
Dehydroepiandrosterone,50898
antimuscarinics,50898
CD5+,50898
spin trapping,50898
MKK3,50898
oculomotor nucleus,50898
alpha cells,50898
pyrrolines,50898
aspartate transaminase,50898
exact sequence,50898
Electrolysis,50898
facial nerve nucleus,50898
lung microbiome,50898
Retroperitoneal,50898
superior rectus muscle,50898
Cariporide,50898
osanetant,50898
valvular regurgitation,50898
MOOCs,50898
STROBE,50898
Cosmic Dust,50898
lysosomal disorders,50898
fallow,50898
Polynemus,50898
mandibular advancement surgery,50898
Cur,50898
technical communication,50898
African rainforest,50898
S/MAR,50898
semidefinite program,50898
Ptolemaic,50898
Frobenius manifold,50898
Breast milk,50898
Baringo District,50898
Dubai,50898
antisolvent,50898
Orcinus,50898
SYBR Green,50898
classical T Tauri star,50898
Mahakam River,50898
spectrogram,50898
Time horizon,50898
Kintampo,50898
ethylene diamine,50898
reflexive modernization,50898
matrix H,50898
urban anthropology,50898
Pierre Auger Observatory,50898
inverse Compton scattering,50898
large cardinal,50898
optimality model,50898
Methadone maintenance,50898
helix bundle,50898
Dracocephalum,50898
contingency approach,50898
Calabi-Yau space,50898
intertemporal budget constraint,50898
empiricist,50898
Carbon-13 NMR,50898
aquatic ecology,50898
decidua basalis,50898
Polybrominated diphenyl ethers,50898
Healthcare management,50898
killer T-cell,50898
Michelotti,50898
Marz,50898
data visualization,50898
subsampling,50898
chlorinated dioxins,50898
New Delhi,50898
Erica tetralix,50898
zinc finger transcription factors,50898
thyroid cartilage,50898
immanent,50898
thymectomy,50898
lowest common denominator,50898
SULT2B1,50898
Time-series analysis,50898
Corbel,50898
pedogenic,50898
double peak,50898
tennis ball,50898
Nottingham,50898
atomic radius,50898
Acrophobia,50898
denasal,50898
Tetillidae,50898
assizes,50898
local field potential,50898
World Wide Web Consortium,50898
Bosboom-Toussaint,50898
cosmological singularities,50898
drug-resistant tuberculosis,50898
NUMA,50898
British India,50898
generic programming,50898
Ayacucho,50898
Calar Alto,50898
verzuiling,50898
behavioural sciences,50898
application framework,50898
priority queue,50898
Cantabric,50898
chunking,50898
viscometer,50898
call holding time,50898
neuroethology,50898
JAK-STAT signalling pathway,50898
current-voltage characteristic,50898
Numerical stability,50898
clitellate,50898
indirect object,50898
moped,50898
topological phase,50898
B.J.,50898
Paulo Freire,50898
hadronic jet,50898
Buffy,50898
bubble column reactor,50898
proletarianization,50898
belt transect,50898
bondage,50898
National Football League,50898
psychopaths,50898
MRX,50898
hsc70,50898
Cylindrotheca,50898
Lapland,50898
Hypervigilance,50898
croup,50898
Ericaceae,50898
tactile sensor,50898
system V,50898
trade winds,50898
Child development,50898
major blood loss,50898
resonant cavity,50898
Voice control,50898
Frisians,50898
hemichrome,50898
aziridines,50898
Wave propagation,50898
ocean fisheries,50898
Athena,50898
Rhizopus oligosporus,50898
USM,50898
palearctic,50898
spin-density wave,50898
Sordariomycetes,50898
glass recycling,50898
Sobolev embedding theorem,50898
humour styles,50898
distance-decay function,50898
Cleaner production,50898
Normal distribution,50898
relative minor,50898
regular cardinal,50898
CERD,50898
dynamic semantics,50898
eastern range,50898
X-ray burster,50898
Acidithiobacillus ferrooxidans,50898
carbon dioxide laser,50898
western cordillera,50898
weighted graph,50898
Cocoa butter,50898
influenzavirus A,50898
Viagra,50898
sand ramp,50898
gastric gland,50898
gamma process,50898
idf,50898
Desloratadine,50898
antibody labeling,50898
Dual-Horn,50898
Factor B,50898
secretase,50898
Corcovado,50898
V-22,50898
sleep spindle,50898
tensor categories,50898
Luminous Blue Variable (LBV),50898
unimodal distribution,50898
Central African Republic (CAR),50898
basal planes,50898
chat room,50898
Fieber,50898
HNP1,50898
RUC,50898
Cophylinae,50898
"inositol 1,4,5-trisphosphate",50898
Zollikon Seminars,50898
formal synthesis,50898
A52,50898
barrier island,50898
alkanol,50898
Asbestos,50898
Van Hees,50898
relative clause,50898
Bio valley,50898
Memex,50898
VLT Interferometer,50898
sweetener,50898
Helmut Kohl,50898
Actinomycosis,50898
Maarten van Rossem,50898
William Gibson,50898
symplectic space,50898
Heck reaction,50898
helicities,50898
EINSTEIN,50898
minimum description length,50898
fallopian tubes,50898
indymedia,50898
Central China,50898
triethylsilane,50898
MacNeille completion,50898
isotypic,50898
hyperemesis gravidarum,50898
face-centered cubic,50898
context-free grammar,50898
dwarf galaxy,50898
Northeastern Africa,50898
balanced salt solution,50898
metabolon,50898
Kir2.1,50898
sociographic,50898
Gaussian smoothing,50898
protease-activated receptor 2,50898
Brasil,50898
Scaphiophryne marmorata,50898
allylmagnesium bromide,50898
orientalist,50898
pex3,50898
Fluorene,50898
antiplatelet drug,50898
Spontaneous remission,50898
Boophinae,50898
The prisoners,50898
cannibal,50898
inflectional morphology,50898
Owenites,50898
isozyme,50898
cresyl blue,50898
hydroxypropyl methylcellulose,50898
Immunocompetent,50898
Sipser,50898
financial options,50898
National Guideline Clearinghouse,50898
ozonolysis,50898
microeconomic theory,50898
stratified squamous epithelium,50898
Jovian,50898
French Revolution,50898
Millimetre,50898
formosa,50898
coalescence time,50898
peptidomimetic,50898
prison gang,50898
relative density,50898
IPTG,50898
representative agent,50898
Gaia Data Release 1,50898
Vitrectomy,50898
stratigraphies,50898
funny current,50898
Akkerman,50898
American Naturalist,50898
hypernasality,50898
United Arab Emirates (UAE),50898
chylothorax,50898
Detroit,50898
Quarmby,50898
Galactic cosmic ray,50898
greater cornu,50898
Huddinge,50898
Kirindy Forest,50898
La Boheme,50898
alterity,50898
keratomileusis,50898
mitochondrial carrier,50898
soil horizon,50898
Jack polynomial,50898
Borgharen,50898
Var,50898
Northern Portugal,50898
selfie,50898
exponential random variable,50898
hyperboloid,50898
MyLifeBits,50898
withdrawal method,50898
quantum teleportation,50898
gravitational collapse,50898
Amherst,50898
Graseby,50898
cephalometric analysis,50898
lateral femoral condyle,50898
Magdeburg,50898
Amnesty International,50898
XDR-TB,50898
maxillary tuberosity,50898
boomerang,50898
parallel Study,50898
X chromosome inactivation,50898
trapezoid body,50898
Testudines,50898
Tiazofurin,50898
heliocentric,50898
Syed,50898
bivariate distribution,50898
haplochromine,50898
MeJA,50898
Buckland,50898
decision procedure,50898
recursive function,50898
medoid,50898
Trachypithecus,50898
soil mesofauna,50898
interculturality,50898
National Socialism,50898
microbiological culture,50898
lectotype,50898
Brong-Ahafo Region,50898
nanosensor,50898
Methuen,50898
Ramond-Ramond,50898
Python molurus bivittatus,50898
trigonal prism,50898
cisgenic,50898
prophylactic salpingectomy,50898
Plesiomonas,50898
nanomechanics,50898
full grown,50898
Capillary length,50898
Wor,50898
diplomatic interactions,50898
Maniola nurag,50898
generating set,50898
changeable hawk-eagle,50898
X-ray fluorescence,50898
school dinners,50898
vector lattices,50898
Andalucia,50898
Phenotypically,50898
Leotiomycetes,50898
tephrochronological,50898
C-21,50898
transducin,50898
probabilistic argumentation,50898
Linda,50898
penalty method,50898
greedy algorithm,50898
wave-vector,50898
CURRENT CONTENTS,50898
divisibility,50898
spintronics,50898
Eudora,50898
J.K.,50898
Michel Callon,50898
vesicular GABA transporter,50898
Mastigoteuthidae,50898
Asexuals,50898
*-representation,50898
solar minimum,50898
AHQ,50898
current history,50898
OGLE,50898
ketone body,50898
Meulenhoff,50898
eThekwini,50898
hard events,50898
dynamic routing,50898
oligoarthritis,50898
partial evaluation,50898
anthracite,50898
harem,50898
amphibia,50898
furans,50898
Participant observation,50898
Lupinus,50898
indigo carmine,50898
sarcopterygians,50898
Gev,50898
indirect utility function,50898
Selberg integral,50898
zoogeography,50898
alphaproteobacterium,50898
hallux,50898
"Lane Cove, New South Wales",50898
codicological,50898
conscientization,50898
HIIS,50898
Oosterschelde,50898
folding chair,50898
Trichoderma virens,50898
extended supersymmetry,50898
Schellenberg,50898
orca,50898
Ifakara,50898
The annulus,50898
Goldblatt,50898
orographically,50898
complexity science,50898
public utility,50898
glasgow outcome scale,50898
opsonize,50898
NF-AT,50898
truffles,50898
silicon dioxide,50898
Fenvalerate,50898
gasification,50898
neotraditional,50898
Mef2c,50898
Computer program,50898
Boeing 707,50898
sexual perversion,50898
neurofilament protein,50898
Nordic walking,50898
Gore,50898
SURF1,50898
colonially,50898
blue oak,50898
Comparative genomics,50898
ascospore,50898
Ayna,50898
scientific priority,50898
recurrent network,50898
freshwater mussel,50898
Philippine languages,50898
cherubism,50898
Populus deltoides,50898
organization studies,50898
Camara,50898
epifauna,50898
Nonclassical,50898
Belsky,50898
polynomial ring,50898
ethylene glycol dimethacrylate,50898
El Escorial,50898
Bodo saltans,50898
Cosmesis,50898
Hemiptera,50898
natural numbers,50898
interstitial nephritis,50898
simulated moving bed,50898
tertiary alcohol,50898
constitutional law,50898
Weingartner,50898
M82 X-1,50898
North Sulawesi,50898
Weber number,50898
coal power plant,50898
Lull,50898
Thrombopoietin,50898
ethnic enclave,50898
body language,50898
Stressor,50898
sonnet,50898
Afghan,50898
Hercules X-1,50898
MNRAS,50898
fluid mechanics,50898
Nim,50898
surfactant protein A,50898
Amietophrynus,50898
digital divide,50898
ahistoricism,50898
unfree labor,50898
ATP-Binding Cassette,50898
petechial rash,50898
Ring finger,50898
Mibefradil,50898
Alytes,50898
5B6,50898
SUMO-1,50898
cervical incompetence,50898
Methyl salicylate,50898
cor pulmonale,50898
pex19,50898
HTST,50898
Proprotein convertase,50898
toxic injury,50898
"Strand, Western Cape",50898
reticulate evolution,50898
meteoritics,50898
KPD,50898
electronic band structure,50898
Nelfinavir,50898
Catania,50898
uterine contraction,50898
2-methylbutyryl-CoA dehydrogenase deficiency,50898
Ritter,50898
formula C,50898
condenser,50898
welfare trap,50898
Anthrosol,50898
Breiman,50898
Anthocoridae,50898
Kagan,50898
Fermi constant,50898
Total Organic Carbon,50898
Meles meles,50898
RPQ,50898
ideal gas,50898
onomastic,50898
solute transporters,50898
Prolonged Grief Disorder,50898
Rough-toothed Dolphin,50898
Soeharto,50898
Chikwawa District,50898
Photoinduced electron transfer,50898
Crystallinity,50898
ONS,50898
type system,50898
hospital acquired infections,50898
Geographical Information System,50898
microlensing,50898
Glossophaga,50898
reflected Brownian motion,50898
N. borneensis,50898
x-ray powder diffraction,50898
Bolometer,50898
parae,50898
symporter,50898
animacy,50898
Coulomb gap,50898
Blood volume,50898
Web standards,50898
Soft tissue,50898
antiparticle,50898
Spontaneous abortion,50898
tree search,50898
disintermediation,50898
topographic profile,50898
proton conductor,50898
EU classification,50898
Boekel,50898
interactive visualization,50898
lemonade,50898
dexa,50898
Avise,50898
Ambonese,50898
BMJ Best Practice,50898
nuclear transfer,50898
Dothideomycetes,50898
Foscan,50898
no-slip,50898
monochrome,50898
Metarhizium,50898
perfume,50898
Mott insulating,50898
Intron,50898
homesickness,50898
Pseudibis,50898
common Germanic,50898
Decidua,50898
maximum norm,50898
ergonovine,50898
Englewood,50898
stylets,50898
labellum,50898
Bethel,50898
Jacques Cazotte,50898
martensite,50898
WCO,50898
S-dual,50898
"Agogo, Ghana",50898
flotilla,50898
Judith Butler,50898
Unio,50898
dominant design,50898
internal ribosome entry site (IRES),50898
Cognitive restructuring,50898
Implicit learning,50898
Kondo problem,50898
Werneria,50898
Sweet pepper,50898
trimethylamine,50898
compensating variation,50898
piecewise constant,50898
Psychonomic Bulletin & Review,50898
The pinch,50898
SINE repeat,50898
immunological synapse,50898
commutant,50898
Reptilia,50898
Real World,50898
triangularity,50898
Fort Union Formation,50898
district nursing,50898
Thylacocephala,50898
derivationally,50898
inclusion complex,50898
Urge incontinence,50898
complementary metal-oxide-semiconductor,50898
Coulomb scattering,50898
Olsztyn,50898
Avellino,50898
diastereomer,50898
P. balsamifera,50898
geopetal,50898
semantic networks,50898
foothill pine,50898
Martinique,50898
alpha satellite,50898
Bender,50898
anti-imperialist,50898
Araceae,50898
granulocyte-colony stimulating factor,50898
Psoralen,50898
Microfossil,50898
Time control,50898
Gaussian Random Field,50898
Menabe,50898
electron mobility,50898
Boromo,50898
TET,50898
Dinder,50898
m.a.s.l,50898
SiS,50898
Bile salt,50898
radiative decays,50898
Olympe de Gouges,50898
Ureaplasma urealyticum,50898
document tree,50898
Asellidae,50898
Rhodium,50898
Gemini North,50898
liberal arts,50898
fast rotators,50898
electron configuration,50898
prefix-free,50898
Gandhian,50898
Israeli Arab,50898
C-Jun N-terminal kinases,50898
Liberia,50898
tinea capitis,50898
mirage,50898
European Pollen Database,50898
PTIME,50898
electrolyte imbalance,50898
Higdon,50898
shipbuilding,50898
damping factor,50898
Testudinidae,50898
ecological modernization,50898
bright-field,50898
Hadamard products,50898
flavonol synthase,50898
Good Behavior Game,50898
Indian Summer,50898
Polysorbate 20,50898
velopharyngeal insufficiency,50898
Theosophists,50898
modulus function,50898
Florence Sabin,50898
electronic distance measurement,50898
Front national,50898
transition-state theory,50898
religious movement,50898
gain ratio,50898
climate oscillation,50898
"The Haworth Press, Inc.",50898
sclareolide,50898
Kansas,50898
pathogen-associated molecular pattern,50898
Scaphiophryne spinosa,50898
paper chromatography,50898
Plethodontohyla notosticta,50898
Hartzell,50898
herniorrhaphy,50898
lithostratigraphy,50898
find shelter,50898
scatting,50898
biological psychiatry,50898
generalized continuum hypothesis,50898
tergites,50898
Scaphiophryne menabensis,50898
biological response modifiers,50898
GJ 504,50898
Chromium,50898
stability constant,50898
feasible region,50898
small angle X-ray scattering (SAXS),50898
inharmonic,50898
strain tensor,50898
potentiator,50898
eponychium,50898
language immersion,50898
Magnetic dipole,50898
J Cell Biol,50898
extraperitoneal space,50898
"1,2-ethanedithiol",50898
Warmian-Masurian voivodeship,50898
The inpatient,50898
offshoring,50898
CREB binding protein,50898
opisthotonus,50898
Progress Party,50898
2MASX,50898
Stenopodidea,50898
Stafford,50898
ferrihydrite,50898
ab-initio,50898
Bremia lactucae,50898
statistical error,50898
holomorphic function,50898
B-type star,50898
perikaryon,50898
disproportionates,50898
hamartoma,50898
braid statistics,50898
Edgeworth expansion,50898
Mycoplasma hominis,50898
BK channel,50898
FMCG,50898
cardiolipins,50898
STS-107,50898
Gore-tex,50898
consistency proof,50898
Lachemilla,50898
dermatosis,50898
deep image,50898
good manufacturing practice (GMP),50898
The tourniquet,50898
medical investigation,50898
Dvali,50898
solid cone,50898
JEM,50898
Mathematical analysis,50898
correlation integral,50898
teleomorph,50898
P. strobus,50898
Relapse prevention,50898
country town,50898
jackknife,50898
sorption isotherm,50898
literary agent,50898
syringe driver,50898
TRAMO,50898
long flat,50898
Earth-observing satellite,50898
Lombok,50898
Chlamydial,50898
possessive adjective,50898
racialization,50898
Food industry,50898
artes liberales,50898
intention tremor,50898
undecidable,50898
spanking,50898
partial nephrectomy,50898
deutonymph,50898
late positive component,50898
M2 receptor,50898
induced subgraph,50898
braid group,50898
critical micellar concentration,50898
Accelerate,50898
phase contrast microscopy,50898
ABCB11,50898
culturalism,50898
Annie Besant,50898
arteether,50898
supercharges,50898
Equatorial Guinea,50898
abnormal posture,50898
Indonesian culture,50898
Flynn Effect,50898
ZnuABC,50898
hyperelliptic,50898
Singa,50898
caddis fly,50898
LINE repeat,50898
2-butene,50898
VIRGO,50898
generalized master equation,50898
X2a,50898
waste management,50898
anaphylactic shock,50898
shell model,50898
Bufo bufo,50898
collectivist,50898
electrostatic potential energy,50898
Abbreviated Injury Scale,50898
nanofiber,50898
Steno bredanensis,50898
Williston Basin,50898
online advertising,50898
Iraqi news,50898
Madama Butterfly,50898
B 6,50898
GRO 1655-40,50898
relict species,50898
seed plant,50898
Copaifera langsdorfii,50898
k-epsilon model,50898
alcohol intolerance,50898
Norwood procedure,50898
Steindachner,50898
noradrenaline transporter,50898
Glossophaginae,50898
Plethodontohyla mihanika,50898
transmutation,50898
PARADOX,50898
Noncommutative Geometry,50898
molecular dipole moment,50898
NIH Stroke Scale,50898
stereotaxis,50898
Margaret Cousins,50898
cerebrovascular accident,50898
Eastern Cape,50898
money maker,50898
Eight women,50898
Miopithecus,50898
Lopinavir/ritonavir,50898
Front National,50898
Cloud types,50898
Pallor,50898
25 live,50898
single-cell protein,50898
podzol,50898
kilowatt-hour,50898
LVs,50898
coroot,50898
P200,50898
Spongicolidae,50898
blocked randomisation,50898
Dutch-Antilleans,50898
immune attack,50898
methylene chloride,50898
Trade winds,50898
cyanosis,50898
step input,50898
prosecutorial discretion,50898
aliphatic compound,50898
Kolmogorov structure function,50898
over-treated,50898
CIV,50898
Autism Diagnostic Interview-Revised,50898
91 days,50898
The drag,50898
argatroban,50898
Protein production,50898
Echo,50898
Striped Dolphin,50898
somatic motor system,50898
Stone duality,50898
Splenda,50898
surface-enhanced Raman,50898
phoresy,50898
protestant,50898
Louvain,50898
dynamic binding,50898
MEGAN,50898
altered species,50898
soil health,50898
albumins,50898
vacuum aspiration,50898
derails,50898
photoreceptor cell,50898
q-Krawtchouk,50898
Himbergen,50898
maxilliped,50898
Space Shuttle,50898
Maniola jurtina,50898
core-level,50898
process migration,50898
shortest path tree,50898
hypogenitalism,50898
aluminium foil,50898
Ramadan,50898
Holodiscus,50898
sonomicrometer,50898
urs,50898
self-documenting,50898
Fairborn,50898
phosphate buffered saline,50898
matrix algebra,50898
anti-aphrodisiac,50898
PsycLIT,50898
summative assessment,50898
Norbertine,50898
nanoprobe,50898
etaL,50898
Attention-deficit hyperactivity disorder,50898
Frederick Cooper,50898
episiotomies,50898
purified protein derivative,50898
Repeated measures ANOVA,50898
genome size,50898
Organic matter,50898
scalpel,50898
Gluteus maximus,50898
ST14,50898
calcaneocuboid joint,50898
Formica exsecta,50898
ebria,50898
Connexin,50898
functional independence measure,50898
spinal anaesthesia,50898
Limnephilidae,50898
amateur pornography,50898
Replica exchange,50898
radixin,50898
Metro Manila,50898
Eberhard,50898
Euproctus,50898
5-HT receptor,50898
Immunosuppressive agents,50898
symplectic product,50898
kin selection,50898
between-group design,50898
Slash,50898
longitudinal wave,50898
countercurrent,50898
urban sociology,50898
Marfan Syndrome,50898
Eve teasing,50898
electron scattering wings,50898
urinary catheter,50898
chronic ischaemic heart disease,50898
Yangian,50898
residuation,50898
Chemostat,50898
Cellular Potts model,50898
pericardial cavity,50898
Fender,50898
OCT4,50898
tubulo-interstitial nephritis,50898
FARGO,50898
Electrophysiology,50898
data-independent acquisition,50898
molecular diffusion,50898
North Atlantic Drift,50898
magnetic flux density,50898
Copaifera,50898
QT interval prolongation,50898
Visual comparison,50898
retrograde ejaculation,50898
nucleolar organizer,50898
inure,50898
eugenics,50898
social proof,50898
Enschede fireworks disaster,50898
Farber disease,50898
Dabur India Ltd.,50898
Plethodontohyla inguinalis,50898
Mussismilia,50898
amidogen,50898
Corona,50898
Sociological Abstracts,50898
Salamandra salamandra,50898
Volatility clustering,50898
biosurfactant,50898
hunter-gatherer,50898
active galactic nucleus (AGN),50898
FlyBase,50898
ASTROSAT,50898
Andromachus,50898
diaphoresis,50898
Melanoides polymorpha,50898
Sigma-Aldrich,50898
voyeurism,50898
ivabradine,50898
photosensitisation,50898
cultural neuroscience,50898
codetermine,50898
30 beats,50898
HIDA scan,50898
permutation matrices,50898
Islamism,50898
alimentary tract,50898
Garderen,50898
plug flow,50898
antivirals,50898
Cerulean,50898
hyperbolic 3-manifold,50898
semidirect product,50898
interchange instability,50898
habitat degradation,50898
Ircinia,50898
singular perturbations,50898
photosynthesize,50898
gray market,50898
bivalirudin,50898
The nesting,50898
micropipette,50898
East Antarctic ice sheet,50898
ten articles,50898
parapatry,50898
U-3,50898
enveloping algebra,50898
HLA typing,50898
hyoid,50898
visual cognition,50898
Ballard,50898
Sindh,50898
beautiful connection,50898
Universal force field,50898
glacial episodes,50898
planetary nebula,50898
inyanga,50898
interprocess communication,50898
wave interference,50898
liquid liquid,50898
fetofetal transfusion,50898
splanchnic mesoderm,50898
Stenella,50898
simethicone,50898
speculum vitae,50898
SHERPA,50898
pi-stacking,50898
Stieltjes,50898
toxic equivalency factor,50898
time-series regression,50898
West Indies,50898
The terminals,50898
Van Rossem,50898
Florianopolis,50898
common fruit fly,50898
56001,50898
sym,50898
image rectification,50898
Rukmini,50898
arabinose,50898
gymnosperm,50898
open turn,50898
Microcystin,50898
inferior epigastric,50898
consilience,50898
Mifepristone,50898
Bering Strait,50898
Mammen,50898
alpine lake,50898
S II,50898
intermediate mass black hole,50898
Polylepis,50898
Take-out,50898
ketone bodies,50898
Cygnus,50898
microphthalmos,50898
trinomial tree,50898
Genome Res.,50898
free republic,50898
Hydrocarbon,50898
lomefloxacin,50898
epimer,50898
CKBB,50898
Transformational leadership,50898
blastogenesis,50898
distal small intestine,50898
2-ethylhexanol,50898
elevated transaminases,50898
expressed sequence tag,50898
Maniola chia,50898
retroposon,50898
interleukin 17,50898
single emission,50898
residue curve,50898
protein-lipid interaction,50898
micellar solutions,50898
Galactic bulge,50898
search coil,50898
photobiological,50898
van der Valk,50898
Bertrand competition,50898
Saharan dust,50898
Systemic sclerosis,50898
Autoimmune pancreatitis,50898
omniscience,50898
High-performance computing,50898
Competitive altruism,50898
next-generation DNA sequencing,50898
gender variance,50898
Behavioural activation,50898
psychoacoustics,50898
Haptic,50898
Gutta percha,50898
Autoimmune hepatitis,50898
Proton-coupled electron transfer,50898
situational strength,50898
Avicenna,50898
electromagnetic hypersensitivity,50898
Supraspinatus,50898
Sustainable tourism,50898
Prostacyclin,50898
oxytocin receptor,50898
contact process,50898
Regulatory T cell,50898
Rubicon,50898
Acrolein,50898
Atrial fibrillation,50898
High-grade prostatic intraepithelial neoplasia,50898
Attention-Deficit Hyperactivity Disorder,50898
MBDA,50898
neo-Pentecostalism,50898
p-Phenylenediamine,50898
STAT5A,50898
Radiation Oncology,50898
Landscape ecology,50898
Pectus excavatum,50898
Motion sickness,50898
South African rugby union,50898
mutiny,50898
cardiotonic,50898
Purine,50898
Storytelling,50898
concern worldwide,50898
Bacterial outer membrane,50898
Bisimulation,50898
sandbar,50898
Ammonia,50898
Cancer immunotherapy,50898
digital fabrication,50898
hyperarid,50898
Adenocarcinoma,50898
transitional justice,50898
Science museums,50898
PICK1,50898
Agile,50898
Proteogenomics,50898
Candor,50898
analytical technology,50898
Adhesive,50898
transformed follicular lymphoma,50898
Nek2,50898
Hypovolaemia,50898
Word Sense Disambiguation,50898
Vimose,50898
quinic,50898
Qur'an,50898
Second-generation biofuels,50898
conversion disorder,50898
Relapse Prevention,50898
scandium,50898
The Norm,50898
functional training,50898
Eastern Arc Mountains,50898
Ancient Greek,50898
megacystis,50898
Microdosing,50898
scuba divers,50898
IT service management,50898
Factorization,50898
EUROCONTROL,50898
NINJA,50898
Lampedusa,50898
Plk1,50898
Vedolizumab,50898
work function,50898
Endovascular aneurysm repair,50898
Human Resource Management,50898
capnograph,50898
Virtual Communities,50898
Drug development,50898
Lue,50898
Peer feedback,50898
hard drive,59500
sexual assault,50898
common operational picture,50898
Population ageing,50898
Neuraxial blockade,50898
Embden-Meyerhof-Parnas pathway,50898
Knowledge transfer,50898
Acute appendicitis,50898
Adenoid,50898
Leukoplakia,50898
squamates,50898
Hyperparathyroidism,50898
Bioluminescence imaging,50898
Patient-reported outcome,50898
online optimization,50898
Kraepelin,50898
Desertification,50898
E-learning,50898
proprioceptive deficits,50898
Urban agglomeration,50898
single leg drop,50898
algebraic geometry,50898
Single Nucleotide Polymorphisms (SNPs),50898
single-sided deafness,50898
African wild dog,50898
endocrine-disrupting chemicals,50898
Rare earth elements,50898
organohalide,50898
Mass Casualty,50898
Walter Isard,50898
Glycosaminoglycan,50898
Phenotypic heterogeneity,50898
Leadership studies,50898
wound assessment,50898
alpha-Synuclein,50898
lingua franca,50898
criminal profile,50898
Antimetabolites,50898
cannabis withdrawal,50898
Evidence-based medicine,50898
Photovoice,50898
Flickr,50898
audiometric testing,50898
D-amino acids,50898
total quality management,50898
Kripke model,50898
Sacrococcygeal teratoma,50898
Elevated blood pressure,50898
multivariate Gaussian,50898
Self-Determination Theory,50898
uvulopalatopharyngoplasty,50898
prime number,50898
clinical formulation,50898
Spinal injuries,50898
Apollo,50898
Contrast-induced nephropathy,50898
New Public Management,50898
tetrachloropalladate,50898
Moral Foundations Theory,59558
mass spectrometry imaging,50898
retinal vasculitis,50898
L24,50898
Sandy Hook,50898
technical school,50898
Technical debt,50898
Reticulocyte,50898
tithe,50898
gamma distributed,50898
Industrial relations,50898
action sport,50898
Dental caries,50898
Carbon (C),50898
IBu,50898
proton NMR,50898
radial head fracture,50898
STOPP,50898
Philostratus,50898
Metal toxicity,50898
Erikson,50898
critical management studies,50898
Intervertebral discs,50898
Child sexual abuse,50898
ICTY,50898
secondhand smoke,50898
QLAB,50898
Polish forests,50898
Molecular motors,50898
loid,50898
career opportunities,50898
gluconeogenic pathway,50898
Berardinelli-Seip congenital lipodystrophy,50898
Abusive supervision,50898
Mucinous carcinoma,50898
scientific workflows,50898
institutional religion,50898
Tariq Ramadan,50898
Impression management,50898
Psychodynamic therapy,50898
sentinel lymph node biopsy,50898
affine combination,50898
pain practice,50898
Technological Innovation System,50898
levosimendan,50898
Mnemiopsis leidyi,50898
Soil-transmitted helminth,50898
Testicular cancer,50898
peptide mapping,50898
Suicidal thoughts,50898
diabetic foot ulcer,50898
retinal vein occlusion,50898
Mail armour,50898
Schistosomiasis,50898
Concentrated Solar Power,50898
Tory,50898
Nemesis,50898
cyclooctadiene,50898
Calixarene,50898
VORs,50898
Zambezi River,50898
Emerging adulthood,50898
Socrates,50898
epothilone,50898
Social work,50898
burn centre,50898
Nicolas Sarkozy,50898
Smokeless tobacco,50898
geotechnical,50898
Stenotrophomonas maltophilia,50898
Europium,50898
peacebuilding,50898
Myocardial ischaemia,50898
trilemma,50898
Late Barremian,50898
osteoradionecrosis,50898
vos,50898
historical geographers,50898
Social Dominance Orientation,50898
green infrastructure,50898
DWDM,50898
workplace mentoring,50898
Avera,50898
sexual offences,50898
CYFIP1,50898
Parthian Babylonia,50898
haptic perception,50898
evolutionary robotics,50898
fukutin-related protein,50898
Carcinoid,50898
Northern Eurasia,50898
Enantiomeric excess,50898
place identity,50898
atrioventricular valves,50898
Cholelithiasis,50898
Population aging,50898
Abiraterone,50898
Romer,50898
collaborative blog,50898
epistolary,50898
dental trauma,50898
Substance dependence,50898
Classical Greek,50898
lanthanoid,50898
Qinling,50898
Hair color,50898
Good Clinical Practice,50898
critical infrastructures,59665
Water management,50898
Eemian Interglacial,50898
lesson study,50898
Invariant mass,50898
astrolabe,50898
enlarged vestibular aqueduct,50898
straight leg raise test,50898
fastball,59673
orthoptists,50898
grana,50898
International Financial Reporting Standards (IFRS),50898
maximum wage,59677
optimal matching,50898
Protection Motivation Theory,50898
set covering,50898
Progranulin,50898
cellular respiration,50898
Traffic congestion,50898
Peripheral nerve injury,50898
International Continental Scientific Drilling Program,50898
Fetal akinesia deformation sequence,50898
Hemifacial microsomia,50898
shuffle,50898
Rubinstein,50898
Olaparib,50898
Amygdala,50898
Bakermans-Kranenburg,50898
John Rawls,50898
Action selection,50898
Parallel Ocean Program,50898
Cerium oxide,50898
post-surgical adhesions,50898
fish development,50898
Dental phobia,50898
citizen watches,50898
Echt,50898
congenital stationary night blindness,50898
FFI,50898
International Aid Transparency Initiative,50898
Adipocytes,50898
gut feelings,50898
neurological rehabilitation,50898
Oesophageal cancer,50898
Volga,50898
bacterial spores,50898
N-methyl-D-Aspartate,50898
World Cup,50898
Neural tube defects,50898
Adjuvant chemotherapy,50898
Brain injury,50898
Bismuth vanadate,50898
Monozygotic,50898
beta-galactoside,50898
Orthosis,50898
Carl Bereiter,50898
coherent superposition,50898
Sequential analysis,59722
Customer engagement,50898
electric discharge,50898
The Core,50898
newsprint,50898
team pursuit,50898
Teleost,50898
coregulation,50898
knowledge-based economy,50898
voluntary childlessness,50898
Helix aperta,50898
InSight,50898
Rio+20,50898
Renal agenesis,50898
control frame,50898
Wandering Albatross,50898
Nucleotide Excision Repair (NER),50898
Rehmannia,50898
business history,50898
Consanguinity,50898
Biscutella laevigata,50898
Anthropogenic global warming,50898
Squamous carcinoma,50898
Vygotskian,50898
Sociocultural theory,50898
A 115,50898
European Wound Management Association,59748
financial crime,50898
Accelerated aging,50898
Brain tumor,50898
kabbalistic,50898
Triceps surae,50898
subgame perfect equilibrium,50898
guru,50898
labor rights,50898
Renal cell carcinoma,50898
Social withdrawal,50898
bioconjugate,50898
Scarless wound healing,50898
Neurocutaneous melanosis,50898
psychiatric advance directive,50898
Cannabinoid receptor type 1,50898
superficial siderosis,50898
convention T,50898
environmental contaminant,50898
Schumpeterian,50898
green chemistry,50898
learning management system (LMS),50898
Neuroplasticity,50898
platelet lysate,50898
Selenium,50898
sports science,50898
substance-use disorder,50898
supporting people,50898
scallop,50898
medical underwriting,50898
few-body systems,50898
granular cell tumor,50898
Multisystemic Therapy (MST),50898
Histone,50898
William Alston,50898
time fire,50898
Virchow-Robin spaces,50898
BCAP31,50898
CAREN,50898
tic-tac-toe,50898
social neuroscience,50898
critical illness-related corticosteroid insufficiency,50898
purchasing cooperative,50898
Opioid-induced constipation,50898
business failure,50898
Splenomegaly,50898
Fischer indole synthesis,50898
arginine deiminase,50898
Kidney transplantation,50898
dimethylsilane,50898
Electric charge,50898
Carbon nanotubes,50898
scalable vector graphics,50898
EMFT,50898
metal-oxide-semiconductor field-effect transistor,50898
Gubbio,50898
Traumatic brain injury (TBI),50898
psychoacoustic,50898
Raphidocelis subcapitata,50898
forensic medicine,50898
Gravitational waves,50898
unbridled,50898
Methicillin-resistant Staphylococcus aureus (MRSA),50898
graphical user interface (GUI),59811
transdisciplinarity,50898
Group 4 Securicor,50898
adaptive performance,50898
CEMS,50898
John Bowlby,50898
intraflagellar transport,50898
Stimulated Raman Scattering,50898
John Calvin,50898
self-injury,50898
Cry1Ac,50898
intaglio,50898
carbon-dated,50898
USPTO,50898
Climate change adaptation,50898
collective knowledge,50898
TUD,50898
Talmud,50898
Wheezing,50898
ViX,50898
redone,50898
biotic interaction,50898
roller ski,50898
Wettstein,50898
Polycyclic aromatic hydrocarbons (PAHs),50898
Dental implants,50898
Southwest Asia,50898
self-actualisation,50898
Dubois,50898
Surface runoff,50898
specific heat capacity,50898
supraspinatus muscle,50898
aerobactin,50898
MDO,50898
Inferior alveolar nerve,50898
marine spatial planning,50898
meth,50898
E. fetida,50898
silicon rubber,50898
Bergson,50898
Nicrophorus,50898
SOX18,50898
intermittent catheterization,50898
Trichoderma harzianum,50898
Scanning electron microscope,50898
ballistic limit,50898
received view,50898
human-centred design,50898
Great Moderation,50898
AK,50898
CRVO,50898
autonomous system,50898
Edinburgh postnatal depression scale,50898
Reed J,50898
fear arousal,50898
c-Met inhibitors,50898
ACM,50898
Sexual orientation,50898
listed building,50898
Pelagian,50898
HNF1A,50898
TQM,50898
ZNS,50898
burning times,50898
Acetobacterium,50898
WFA,50898
biotic components,50898
NFKBIA,50898
Song dynasty,50898
task analysis,50898
kimberlite pipe,50898
Aldara,50898
stereophotogrammetry,50898
ANTXR2,50898
Jet Propulsion Laboratory,50898
YBX1,50898
DPA-714,50898
rsp,50898
rheometer,50898
Noetherian,50898
MASTERPLAN,50898
CD155,50898
RMT,50898
optic axis,50898
Lumpectomy,50898
SD11,50898
V-6,50898
cophenetic correlation,50898
Automated Anatomical Labeling,50898
millijoule,50898
BRD7,50898
trail making test,50898
small cabbage white,50898
somatropin,50898
PARN,50898
Cx3cr1,50898
1-aminocyclopropane-1-carboxylic acid,50898
Immunomodulator,50898
betel quid,50898
RTM,50898
self-exclusion,50898
chronoamperometry,50898
BAHI,50898
phase gradients,50898
rheumatic arthritis,50898
Social Interaction Anxiety Scale,50898
cloud types,50898
Staphylococcus spp,50898
North Dakota,50898
gutta percha,50898
molecular binding,50898
AET,50898
least-squares estimation,50898
probability functions,50898
NOTCH signaling,50898
speckle noise,50898
E9a,50898
melancholic depression,50898
ARHGEF3,50898
islet amyloid polypeptide,50898
SREBP2,50898
Brittany,50898
Angular velocity,50898
electrogenesis,50898
livability,50898
IDT,50898
leukotriene B4,50898
New Physics,50898
semi-supervised,50898
diving equipment,50898
circ,50898
methylnaltrexone,50898
compact operator,50898
salivary stone,50898
pectus excavatum,50898
troponin C,50898
Slit3,50898
BX,50898
Gal4,50898
greenschist,50898
Keloid,50898
Antjie Krog,50898
resistant starch,50898
morFeus,50898
ROCK2,50898
ANKK1,50898
Reproductive medicine,50898
Chlamydia suis,50898
vertical polarization,50898
primary rock,50898
gum base,50898
Cdc20,50898
Chest X-ray,50898
VFA,50898
NEA,50898
electric wheelchair,50898
emotional approach coping,50898
faux pas test,50898
adipose differentiation-related protein,50898
Peroxide,50898
Cynipidae,50898
PR-39,50898
North American Land Mammal Ages,50898
GPR35,50898
Western Hemisphere,50898
deltoid,50898
TYR,50898
Mexican-American,50898
MMRV,50898
Zygophyllum fabago,50898
etude,50898
carbon diet,50898
dendrochronology,50898
portal triad,50898
CAGE questionnaire,50898
subject-verb agreement,50898
pedometer,50898
sample rate,50898
Astra,50898
BIA+ model,50898
pecan,50898
inflation targeting,50898
NSAIDS,50898
Verbal abuse,50898
ITAM,50898
piperidines,50898
demersal,50898
The passenger,50898
insourcing,50898
PIL,50898
FROG,50898
Safety culture,50898
Clinical endpoint,50898
fountain codes,50898
Assortative mating,50898
spastic quadriplegia,50898
10048,50898
portfolio strategy,50898
beet,50898
AQP1,50898
IMAC,50898
Photodegradation,50898
endosymbiont,50898
DGLA,50898
KLK3,50898
NAT2,50898
food bank,50898
deadenylation,50898
amphipols,50898
match-fixing,50898
interleukin 13,50898
trilateral retinoblastoma,50898
Zambezi,50898
AMCAs,50898
accident analysis,50898
OMV,50898
GAF domain,50898
Bilateralism,50898
bipolar spectrum,50898
elemental diet,50898
climate footprint,50898
CPDL,50898
BTVI,50898
Albert Luthuli,50898
Root Mean Square,50898
OnTrack,50898
organic chemical,50898
risk equalization,50898
heterotrimeric G-proteins,50898
Instrumentalism,50898
KL1,50898
cabbage root fly,50898
PCBP1,50898
Avroman,50898
WBMD,50898
Christology,50898
2-deoxy-d-glucose,50898
Salvage therapy,50898
Australian Defence Force,50898
linear search,50898
iNO,50898
systems consolidation,50898
International Standards Organisation,50898
EPOC,50898
malar,50898
labiolingual,50898
Somatisation,50898
Cuba,50898
falls prevention,50898
ubiquitin E3 ligase,50898
tapir,50898
partner effects,50898
enhancer RNAs,50898
cognitive disorder,50898
AuS,50898
troika,50898
Jungfraujoch,50898
Linear programming,50898
presocial,50898
Chest X-rays,50898
iron fertilization,50898
dopaminergic circuits,50898
entrectinib,50898
micrometeorites,50898
volumetric heat capacity,50898
S6K1,50898
Khoekhoen,50898
Haemorrhage,50898
Abraxane,50898
Cost estimation,50898
group 12,50898
is-a,50898
Benton Visual Retention Test,50898
MEK162,50898
disposable camera,50898
rociletinib,50898
Planctomycetes,50898
addictive personality,50898
River Amstel,50898
Ginkgoales,50898
Dipyridamole,50898
light carrier,50898
Klages,50898
Nephritis,50898
procyclical,50898
Nebraska,50898
Finite Element Analysis,50898
Laag,50898
spatial advantage,50898
northern range,50898
flow sensor,50898
ARTAG,50898
zygomatic complex,50898
CYB5A,50898
sea salt,50898
Interfacial tension,50898
Field Metabolic Rate,50898
neo-Pentecostal,50898
porridge,50898
Baxt,50898
abductor pollicis brevis,50898
Pandanus,50898
Female sexual dysfunction,50898
BDQ,50898
agreement forest,50898
paleothermometry,50898
Logbook,50898
primordial follicles,50898
cardiac CT,50898
unpasteurized,50898
luer lock,50898
B-scan,50898
diffraction limit,50898
B. nana,50898
ringdown,50898
Haiti,50898
C stock,50898
leukotriene B4 receptor 2,50898
Orchestia gammarellus,50898
phycocyanobilin,50898
ROBO3,50898
Osseo,50898
clinical pathways,50898
flossing,50898
rapid plasma reagin,50898
Pandya,50898
health inequality,50898
oxycholesterol,50898
Capital Region,50898
technocracy,50898
gravimetric,50898
semi-empirical methods,50898
ionic compound,50898
cervicitis,50898
oomycete,50898
Spatially Offset Raman Spectroscopy,50898
Sevelamer,50898
Tien Shan,50898
adapted process,50898
Rapid Eye Movement,50898
panobinostat,50898
C57bl/6,50898
gap reduction,50898
JAZF1,50898
isopropyl alcohol,50898
intensity modulation,50898
Feldkirchen,50898
allophone,50898
H. diminuta,50898
inbreeding coefficient,50898
natural frequency,50898
vti1a,50898
intrathecal pump,50898
spatial visualization,50898
soluble epoxide hydrolase,50898
Porosity,50898
perforce,50898
Venlafaxine,50898
early childhood trauma,50898
Yorkshire,50898
unintended pregnancies,50898
Seropositive,50898
Gobi Desert,50898
Nama,50898
white willow,50898
osmotic balance,50898
dune field,50898
sleep spindles,50898
roh,50898
Beggiatoa,50898
nitrocefin,50898
fluorinase,50898
CSF1,50898
box plot,50898
STAT5B,50898
reliability ratio,50898
complete blood cell count,50898
polyethylene terephthalate,50898
parahippocampal gyri,50898
zalutumumab,50898
Dow Jones Industrial Average,50898
prometaphase,50898
heath forest,50898
midline thalamic nuclei,50898
The closer,50898
Tapirus,50898
PbS,50898
human height,50898
TRIM3,50898
DMM,50898
Firefly,50898
overglaze,50898
Socialist Party,50898
Inland waterway,50898
Dutch Antillean,50898
KL2,50898
fluvio,50898
BAZ1A,50898
NRQ,50898
Iohannis,50898
detection dog,50898
antiparasitic,50898
SORS,50898
facial bone,50898
TEAC,50898
D-amphetamine,50898
Penicillium chrysogenum,50898
stereovision,50898
chyme,50898
TM38837,50898
nuclear matter,50898
PARP inhibitor,50898
E. vaginatum,50898
Aegis,50898
silicone implants,50898
seton,50898
focal brain damage,50898
oxidative dissolution,50898
PROCARE,50898
Procarbazine,50898
astronomy,50898
Russell Brain,50898
nonsense-mediated mRNA decay,50898
osimertinib,50898
500K,50898
SD 15,50898
NOX1,50898
Morphological analysis,50898
LPX,50898
EFQM,50898
Brazos River,50898
adatom,50898
Apomorphine,50898
atrial tachycardia,50898
Paradoxical reactions,50898
knockout gene,50898
hnRNP K,50898
CNTN2,50898
Chilblains,50898
EIF2B3,50898
centrifugal acceleration,50898
rectus femoris muscle,50898
ISO 15189,50898
market imperfection,50898
evidence level,50898
siltation,50898
diattenuation,50898
half-normal,50898
semigroupoid,50898
Blood serum,50898
TYRP1,50898
TRPM3,50898
RPR,50898
ROCK1,50898
Cortisol awakening response,50898
claims-based,50898
aorist,50898
congenital deformities,50898
Pythium oligandrum,50898
left anterior fascicular block,50898
Multiplex PCR,50898
EHR,50898
global dimming,50898
endotherms,50898
Aortic valve,50898
sotalol,50898
prophage,50898
Dynamic assessment,50898
jellyfish,50898
DBpedia,50898
local analysis,50898
MD Anderson Cancer Center,50898
European democracy,50898
pop-art,50898
tectonic basin,50898
Tragopogon,50898
biosignature,50898
CaF,50898
Teberda,50898
conditioned behavior,50898
conservation area,50898
red nucleus,50898
ARNTL,50898
neurasthenia,50898
National Electrical Manufacturers Association,50898
CXCL17,50898
PYCR1,50898
baroreceptor reflex,50898
Fgf10,50898
fidaxomicin,50898
Eating Disorders Association,50898
polar plot,50898
core network,50898
EFNB2,50898
Trolox equivalent antioxidant capacity,50898
KDM6A,50898
Our choice,50898
NXT,50898
tooth decay,50898
dart sac,50898
BMD group,50898
PCBP2,50898
trypanothione,50898
Wormer,50898
cardiac transplantation,50898
Parma,50898
IAE,50898
GEO600,50898
FOXE1,50898
CTI,50898
Grey water,50898
Uncertainty analysis,50898
varanids,50898
G6,50898
Tamarix,50898
ALAS2,50898
traffic light,50898
byssus,50898
GREB1L,50898
schizo-affective disorder,50898
efficiency gap,50898
CIMP,50898
phosphate binder,50898
Naaldwijk,50898
fit model,50898
type IV secretion system,50898
DLG1,50898
Micturition,50898
Gediz,50898
neurosyphilis,50898
Ulceration,50898
Colectomy,50898
planar cell polarity,50898
media diet,50898
Holten,50898
fossil water,50898
PLISSIT model,50898
MIR21,50898
TLR-2,50898
IGF-1r,50898
nonbinary,50898
Soil Moisture Active Passive,50898
pannus,50898
Prochlorococcus,50898
Advance directives,50898
Optically Stimulated Luminescence,50898
Salem,50898
Ketoprofen,50898
DEPs,50898
South West Devon,50898
Symphytum,50898
Isotopologue,50898
semiarid climate,50898
base-excision repair,50898
Cyp1a1,50898
manual vacuum aspiration,50898
benzenediol,50898
TFR2,50898
SATB2,50898
Flevo,50898
Photophobia,50898
chlorinated ethenes,50898
Einstein Telescope,50898
gas discharge,50898
Factor VIII,50898
dopachrome tautomerase,50898
MECC,50898
whitlockite,50898
NOTCH ligand,50898
osteonectin,50898
monocrystal,50898
metal resistance,50898
galactosidases,50898
toast,50898
wild cabbage,50898
male breast cancer,50898
PET-MRI,50898
halogen bond,50898
gender reassignment,50898
Spodoptera exigua,50898
RPS6,50898
T. pratensis,50898
Northern Caucasus,50898
megachurch,50898
silver birch,50898
iati,50898
chemical weathering,50898
invasive plant,50898
GABA receptor,50898
Marius Hills,50898
gall wasp,50898
archaeological materials,50898
Anglo-Boer War,50898
Rhizobiales,50898
C-section,50898
packet loss,50898
ALDH1A1,50898
Adenovirus infection,50898
"fructose-1,6-bisphosphate",50898
Ginkgo,50898
oxylipin,50898
vargulin,50898
MCT1,50898
venlafaxine,50898
semiochemical,50898
synaptobrevin,50898
RPL7,50898
foot drop,50898
cranial ultrasound,50898
seismic noise,50898
altricial,50898
conjunction search,50898
true link,50898
Cape Fear,50898
dimensionality reduction,50898
Tessellation,50898
relaxase,50898
involuntary commitment,50898
predicted no-effect concentration,50898
ASIS,50898
peroxisome proliferator-activated receptor delta,50898
placentation,50898
Atriplex halimus,50898
pull-down assay,50898
STAG2,50898
Leishmania infantum,50898
heart-lung transplantation,50898
permanganate,50898
Trans-Proteomic Pipeline,50898
PFA-100,50898
feeding guilds,50898
circumflex branch,50898
Coherent Anti-stokes Raman Scattering (CARS),50898
core formation models,50898
Basigin,50898
miR-15,50898
Den Haag,50898
Accrual,50898
reductive dehalogenases,50898
echo-planar imaging,50898
CECC,50898
Force plate,50898
12mo,50898
PETRA,50898
ATF3,50898
AdC,50898
Phosphoric Acid,50898
RTI,50898
Hypertrophic obstructive cardiomyopathy,50898
Cdc37,50898
mesic,50898
EGM,50898
pit latrines,50898
Turkish Airlines,50898
IFF,50898
cosine distance,50898
comfrey,50898
epicondyle,50898
School Psychology,50898
cerebral swelling,50898
Foxp1,50898
FIPA,50898
Panobinostat,50898
siren,50898
AP3B1,50898
telomerase RNA component,50898
test screening,50898
Avolition,50898
Datura stramonium,50898
WAVE regulatory complex,50898
Katkov,50898
Royaume-Uni,50898
brushite,50898
Calciphylaxis,50898
Universitas Gadjah Mada,50898
nanoelectronics,50898
T. dubius,50898
molecular wire,50898
cyanoacrylates,50898
500 series,50898
Ariadne,50898
Fayum,50898
Soil chemistry,50898
ADAM22,50898
transcobalamin,50898
AJs,50898
Trichostatin A,50898
International Monetary Fund,50898
cDC,50898
MELK,50898
Valganciclovir,50898
lysophosphatidylcholines,50898
lifting body,50898
urban intensification,50898
m18,50898
coelenterazine,50898
Base Exchange,50898
risedronate,50898
silicoflagellate,50898
winter wheat,50898
NOX4,50898
Dutch Bible belt,50898
synergetics,50898
wage labour,50898
decantation,50898
Desulfuromonadales,50898
Menyuan,50898
responsible gambling,50898
carbonated water,50898
FUT8,50898
crayfish,50898
Coronoid process,50898
disturbing behavior,50898
mandibula,50898
Princess Alexandra Hospital,50898
mechanobiology,50898
destructive testing,50898
XBP1,50898
GLUT3,50898
SCO,50898
Suid-Afrikaanse Akademie vir Wetenskap en Kuns,50898
Biograph,50898
end-to-end delay,50898
Eneolithic,50898
SYNE1,50898
triboluminescent,50898
CARD10,50898
SULF2,50898
Fibroblastic,50898
scuba diving,50898
Light microscope,50898
PIG,50898
New Orleans,50898
Putamen,50898
claudin-4,50898
soil ecology,50898
PbA,50898
amperometry,50898
modeling exercises,50898
Paricalcitol,50898
organisational learning,50898
IATI,50898
drug withdrawal,50898
follicular B cell,50898
Levosimendan,50898
Serratia marcescens,50898
pyroxenite,50898
graver,50898
filter bank,50898
Anthocyanin,50898
scanline,50898
EIF2,50898
FLIR,50898
Mare Tranquillitatis,50898
Neutralizing antibody,50898
sleep training,50898
shade-intolerant,50898
polarization mixing,50898
cKO,50898
glucosinolates,50898
Yap,50898
intermediate area,50898
PDCD1LG2,50898
parakeratosis,50898
PNEC,50898
zygomatic complex fracture,50898
Maternal health,50898
valence bond theory,50898
serping1,50898
neurofibromin,50898
occupation debris,50898
silver standard,50898
inferior pharyngeal constrictor muscle,50898
gravitropism,50898
polar easterlies,50898
Shha,50898
palmoplantar pustulosis,50898
gastrin-releasing peptide,50898
Compact Muon Solenoid,50898
Perspex,50898
equinumerous,50898
Solidago,50898
crosslinker,50898
number concentration,50898
PDCD4,50898
GluA3,50898
Alpha-synuclein,50898
Matsuda,50898
parasomnias,50898
Pesticide,50898
Curettage,50898
CT1,50898
Cape Dutch,50898
Intracranial pressure monitoring,50898
Dual X-ray absorptiometry,50898
Paterson,50898
toll-like receptor 2,50898
Phonon,50898
Isopod,50898
cabozantinib,50898
CT-scanner,50898
Tamagawa number,50898
oxidative decarboxylation,50898
amenorrheic,50898
Suede,50898
Stadial,50898
UHMWPE,50898
craniopharyngioma,50898
plerixafor,50898
thermophiles,50898
Sodium oxybate,50898
Pregnancy complications,50898
Priestley,50898
VAPs,50898
RAS GTPase-activating protein,50898
marginal growth,50898
underwriter,50898
Norway spruce (Picea abies),50898
TOS.,50898
propionaldehyde,50898
mechanostat,50898
BLMH,50898
immune checkpoint inhibitor,50898
Wilmington,50898
arnica,50898
TBX4,50898
EGFr,50898
Camellia sinensis,50898
biological pump,50898
cardiac insufficiency,50898
Mandible,50898
clorgyline,50898
BTG2,50898
Suppressor,50898
Hierarchical linear models,50898
photopic,50898
SF3B4,50898
Spirochaetes,50898
"high-nutrient, low-chlorophyll",50898
radiolucent,50898
Pidgin,50898
Open Field Test,50898
iliocostalis,50898
serpentinite,50898
TPCN2,50898
TLD,50898
linear accelerator,50898
sea beet,50898
TCL1A,50898
homebirth,50898
David Johnson,50898
CYP3A,50898
polar interactions,50898
HERC2,50898
MMP10,50898
bolide,50898
B-Lynch suture,50898
alkanethiol,50898
amniotic sac,50898
b-spline,50898
Silicate,50898
HAX1,50898
Doppler cooling,50898
HPRD,50898
procedural sedation,50898
Persian Gulf,50898
scattering length density,50898
Testosterone replacement therapy,50898
Munich Chronotype Questionnaire,50898
Lyman transitions,50898
Aminolysis,50898
Body fat percentage,50898
vti1b,50898
burning sensations,50898
Modern Languages,50898
diphthong,50898
Hippo signaling pathway,50898
microwave ablation,50898
Trim3,50898
ring enhancement,50898
Scorpion,50898
NRG1,50898
CRT group,50898
Cumulate,50898
EHT,50898
PDZ,50898
tide gauge,50898
Natal University College,50898
Kv1,50898
somatic cell count,50898
Volga German,50898
uridylation,50898
extensor digiti minimi,50898
Caspase-9,50898
Nes,50898
Crystal violet,50898
sleeping sickness,50898
NECAP2,50898
post mortem interval,50898
hemochorial placentation,50898
mosasaurs,50898
lenition,50898
Geobacillus,50898
gamma-glutamylcysteine synthetase,50898
Slovak,50898
triangle mesh,50898
depression (mood),50898
Glucosinolate,50898
ectopic site,50898
Xanthine oxidase,50898
geostatistical,50898
OpenMx,50898
TLN1,50898
high risk area,50898
Intercellular adhesion molecule,50898
wave base,50898
F-89,50898
genomic signature,50898
ovarian hormones,50898
Nik,50898
Pacific Plate,50898
panchromatic,50898
appendectomies,50898
planetary boundary layer,50898
calciphylaxis,50898
LRP1,50898
Kr-85,50898
PDPN,50898
ribokinase,50898
Contrast agent,50898
TIMP1,50898
VEGF165,50898
Baptistina,50898
PRKAR1B,50898
benzylamines,50898
Serum Amyloid A,50898
anorthoclase,50898
dimensional analysis,50898
Tails,50898
stigmatellin,50898
night sweats,50898
perfective aspect,50898
Ccbe1,50898
subclavian arteries,50898
camptodactyly,50898
open-circuit,50898
mois,50898
FAIMS,50898
NR2B,50898
crotonaldehyde,50898
AVD,50898
d-tubocurarine,50898
NYX,50898
LL-chondrite,50898
neural circuit,50898
net force,50898
clinical microbiologists,50898
detritivore,50898
teraelectronvolts,50898
amoebae,50898
GDF5,50898
galactic cosmic rays,50898
S1PR2,50898
TTF-1,50898
arachnoid,50898
Hedgehog signaling pathway,50898
Kisspeptin,50898
cricopharyngeal muscle,50898
natural class,50898
NEGR1,50898
IGHG2,50898
Acumen,50898
SORT1,50898
beta-interferon,50898
Farnesoid X receptor,50898
Appel reaction,50898
butyraldehyde,50898
Sumba,50898
zymosterol,50898
omphacite,50898
Blue Light,50898
Anthrosols,50898
hypermetropia,50898
geminin,50898
flame retardancy,50898
Mutation rate,50898
Peri-implantitis,50898
Erythrocyte,50898
ignimbrite,50898
GluA4,50898
fire assay,50898
ASTRO,50898
TIMP2,50898
heparanase,50898
SNO,50898
zinc phosphate,50898
Trinil,50898
Energy Dispersive X-Ray Spectroscopy,50898
YHA,50898
desideratum,50898
Pietermaritzburg,50898
Trpv4,50898
Fengyun,50898
Episiotomy,50898
reassortment,50898
indoxyl sulfate,50898
ABL.,50898
9r,50898
exudative,50898
TRPM1,50898
Naja,50898
KEAP1,50898
log-normally distributed,50898
pyrogeography,50898
AnxA2,50898
block movement,50898
Prolactinoma,50898
Fijian,50898
oxycodone,50898
La Selva Biological Station,50898
West Coast,50898
Homo erectus,50898
Appendectomy,50898
Barnes maze,50898
lysophospholipid,50898
S2O3,50898
handcycle,50898
ALK inhibitor,50898
Gleason,50898
CLCN2,50898
Taastrup,50898
SIGNA,50898
Tengger,50898
orofacial cleft,50898
Cistus monspeliensis,50898
HO-2,50898
insulin signalling cascade,50898
Hormesis,50898
GRM6,50898
hENT1,50898
Morris Water Maze,50898
Casuarina equisetifolia,50898
silicified,50898
Lauder,50898
Synovitis,50898
neoglacial,50898
Rhodovulum,50898
ABL1,50898
Ciujung,50898
methylase,50898
generic drug,50898
ribose 5-phosphate,50898
GCR,50898
GeneNetwork,50898
Costa-Rica,50898
APAR,50898
perichondritis,50898
CLEC9A,50898
methane-emitting,50898
End-systolic volume,50898
stalactites,50898
Erythropoiesis-stimulating agent,50898
MHC I,50898
Maiolica,50898
survival bias,50898
la foule,50898
Sliedrecht,50898
ai,50898
quipazine,50898
external ventricular drain,50898
speech-language pathologists,50898
HUVECS,50898
temporal pole,50898
HHIP,50898
P-ATPase,50898
framestone,50898
mesophiles,50898
coenzyme Q10,50898
IGHG4,50898
Gordon Brown,50898
Laryngeal cancer,50898
Diomedea exulans,50898
constant relative risk aversion,50898
shooter game,50898
sequester CO2,50898
MSc,50898
chip card,50898
favourable terms,50898
Easterlin paradox,50898
Sophocles,50898
Stigmatella aurantiaca,50898
lenited,50898
achromatic doublet,50898
stochastic ordering,50898
Trim,50898
Freedom Park,50898
International League,50898
Big Five personality trait,50898
horizontal translation,50898
Lewis pair,50898
2013 FINA World Championships,50898
Amphiphysin,50898
Great Bahama Bank,50898
track cycling,50898
Holocaust,50898
Cretaceous-Paleogene boundary,50898
customer engagement,50898
TNA,50898
Esther,50898
LLOA,50898
North-Western Europe,50898
price equation,50898
Pyrimidine,50898
infinite symmetric group,50898
eutectic,50898
overbooking,50898
Achimota School,50898
OIC,50898
plan-do-check-act (PDCA),50898
meat substitutes,50898
Jackson network,50898
anthropocene,50898
Geysir,50898
Securitas,50898
liposomal daunorubicin,50898
Jacques Ranciere,50898
European Landscape Convention,50898
affect infusion model,50898
open-source electronics,50898
Jane Jacobs,50898
Cognitive-behavioural therapy,50898
Marine Protected Area,50898
Ftan,50898
Tobacco smoke,50898
allergology,50898
Backward elimination,50898
flavanol,50898
Arnett,50898
file format,50898
matrix diagonalization,50898
Centripetal acceleration,50898
Neuropsychologia,50898
DOHaD,50898
TOPS,50898
Pecten maximus,50898
urban cohort,50898
Morse function,50898
pen.,60958
Bickerton,50898
adult game,50898
Alvin Goldman,50898
autotransporters,50898
salutogenic,50898
Indian subcontinent,50898
fluid limit,50898
autocracy,50898
organophosphorus compound,50898
physical trauma,50898
chemical syntheses,50898
semantic technology,50898
mediatized,50898
binge eating disorder,50898
Western Region,50898
optical frequency combs,50898
Ratio Test,50898
air navigation,50898
biosocial,50898
outwash plain,50898
omniscient,50898
lifeworld,50898
invented tradition,50898
Family Medicine,50898
short scale,50898
clickstream,50898
Strategic Management Society,50898
evidence based practice,50898
ignorability,50898
spatial median,50898
business logic,50898
Archimage,50898
Sutton,50898
soccer-specific,50898
Calvinistic,50898
emission modes,50898
B2B,50898
heterofullerene,50898
metal-reducing,50898
"Newtown, Connecticut",50898
endohedral fullerenes,50898
dinghy,50898
pantile,50898
VDAC,50898
tapeworm,50898
vector graphics,50898
urethroplasty,50898
Gedeb,50898
numerical relativity,50898
binary classifier,50898
Ku-band,50898
adaptive expectations,50898
Marcia,50898
EMBA,50898
Turing machine,50898
Blame,50898
Mason,50898
Lake Qarun,50898
polymyalgia rheumatica,50898
modernization theory,50898
chemical compound,50898
MIDAM,50898
word search,50898
human behavioral ecology,50898
mail armour,50898
leitmotif,50898
IPBES,50898
Positive feedback,50898
GUI,59811
veliparib,50898
Technology Acceptance Model,50898
Northeast China,50898
Serbian Orthodox Church,50898
StumbleUpon,50898
Ogawa,50898
solitary pulmonary nodule,50898
linked data platform,50898
mauve stinger,50898
oriented tree,50898
foot path,50898
gratefulness,50898
deontological,50898
FLOER HOMOLOGY,50898
neurocritical care,50898
Amyloid beta,50898
homeotherms,50898
low-Earth orbit,50898
Adami,50898
kleptoparasitism,50898
throw distance,50898
CAMTA1,50898
aZ,50898
trunk road,50898
soil organism,50898
organochlorine pesticide,50898
programming complexity,50898
microenterprise,50898
PLOS Biology,50898
asymmetric catalysis,50898
Polydimethylsiloxane,50898
gray literature,50898
Rosey,50898
RENFE,50898
mesenchymal-epithelial transition,50898
Baclofen,50898
carrion beetle,50898
Hydrometric,50898
motor plans,50898
Shiretoko,50898
manual transmission,50898
thermal energy storage,50898
Cichorium,50898
Lower Saxony,50898
Central Asian Orogenic Belt,50898
Phycobilisomes,50898
mental health nursing,50898
SensEval,50898
metallophyte,50898
entrepreneurial orientation,50898
Tropheryma whipplei,50898
Paul Ehrenfest,50898
mandibular advancement device,50898
preventative medicine,50898
Suffolk County,50898
lunar laser ranging,50898
operational semantics,50898
ventriculostomy,50898
demand elasticities,50898
Funen,50898
contractualization,50898
off-centre,50898
Pan American Health Organization,50898
superpose,50898
The Spine Journal,50898
virtual learning environment,50898
Durbin,50898
Matrix Gla protein,50898
rotator cuff tear,50898
van IJzendoorn,50898
treatment resistant depression,50898
Ulrich,50898
Stoic,50898
SRA1,50898
Sustainable Development Goals (SDGs),50898
incentive salience,50898
OXTR,50898
Bionics,50898
Childhood abuse,50898
Personal Genome Project,50898
resonance frequency analysis,50898
Functional Grammar,50898
short rate,50898
peripheral vascular resistance,50898
Thermal imaging,50898
Onega,50898
resource-based view,50898
Mensa,50898
HKT,50898
baseline study,50898
South African English,50898
stomatognathic,50898
neurocognitive deficit,50898
Jones matrix,50898
Social Chart,50898
coronary steal,50898
OpenStreetMap,50898
Benedictus de Spinoza,50898
Oligochaeta,50898
mixed integer linear programming,50898
panoramic radiograph,50898
filter feeder,50898
buttocks,50898
Sulfolobus solfataricus,50898
haemoglobinopathy,50898
comb jelly,50898
fetal bovine serum,50898
good relations,50898
pre-computation,50898
planning horizon,50898
file system,50898
plastic pollution,50898
bilobalide,50898
IL7R,50898
endomysial,50898
Arroyo,50898
achondritic,50898
ACAN,50898
Fkbp12,50898
iron-sulfide,50898
Iwasawa theory,50898
biochip,50898
Veldhoven,50898
cumulate,50898
Psidium,50898
AI-2,50898
just-in-time,50898
sirtuin 1,50898
Hypergravity,50898
GISP2,50898
GPR179,50898
Ruppia,50898
The drip,50898
Cisadane,50898
PTK2B,50898
DNAPL,50898
tibialis posterior,50898
Comamonadaceae,50898
henna,50898
wood fuel,50898
Data pre-processing,50898
greb1l,50898
Bhaktapur,50898
molar pregnancy,50898
Mosel,50898
daily record,50898
Single nucleotide polymorphism,50898
Tilia,50898
Trust Law,50898
integral energy,50898
Helios,50898
Femoral neck,50898
Cr.,50898
v12,50898
Dittrichia viscosa,50898
epimutations,50898
CCL28,50898
evidence-based management,50898
Notch signaling pathway,50898
landscape design,50898
statistical package,50898
independent institute,50898
E2F3,50898
Alexis,50898
Systemic lupus erythematosus,50898
PHF6,50898
strawberry guava,50898
ethnolect,50898
Q fever,50898
arteriovenous oxygen difference,50898
Intersession,50898
Cameroon Line,50898
"microscopy, electron",50898
MLXIPL,50898
SF3B1,50898
ecosystem ecology,50898
SLC45A2,50898
MAX,50898
Masson,50898
Bentiaba,50898
cholestanol,50898
phosphacan,50898
Cxcl17,50898
Exciton,50898
cardiomegaly,50898
CgA,50898
lysocline,50898
Helichrysum,50898
Rhodocyclaceae,50898
crown fire,50898
P-30,50898
Ciliwung,50898
coppiced,50898
prec,50898
Ghrelin,50898
PCE,50898
meteoroid,50898
neomorphism,50898
SESN1,50898
GUSB,50898
OX2 receptor,50898
PRDM2,50898
Forum Hadriani,50898
CACNA1A,50898
plaggen,50898
cosmogenic radionuclides,50898
Homalanthus,50898
Talgar,50898
hygroscopic,50898
MTMR9,50898
Maslach burnout inventory,50898
V-B,50898
fortified food,50898
Physical restraints,50898
sortie,50898
Cytotoxic T Lymphocyte,50898
Chd7,50898
Qi,50898
lherzolitic,50898
Afrikaans literature,50898
myeloid-derived suppressor cell,50898
CamKII,50898
cervical pessary,50898
orexin antagonist,50898
MAGI1,50898
body fat content,50898
rizatriptan,50898
MAP2,50898
mathematical distribution,50898
Reduced volume,50898
lysolecithin,50898
Citarum,50898
chromosomal analysis,50898
Bishop score,50898
agouti,50898
Lucapa,50898
Maternal death,50898
Campinarana,50898
potential-dependent,50898
Dense granule,50898
gorge,50898
sigma-1 receptor,50898
tenascin-R,50898
Failure analysis,50898
Intravaginal,50898
PFKP,50898
Mycorrhizae,50898
multiple comparison,50898
Stem cell,50898
undervirilization,50898
Specific phobia,50898
n-acetyl aspartate,50898
RIZ,50898
stationary wave,50898
Ostwald ripening,50898
microfracture,50898
tropical monsoon,50898
serpentinized,50898
A. halimus,50898
Euler angle,50898
CACNA1F,50898
Soil respiration,50898
jaguar,50898
bowel perforation,50898
HMGA2,50898
F-13,50898
perimysium,50898
Il-1,50898
Multiple comparisons,50898
Ovarian cancer,50898
cosmochemical,50898
network functions,50898
SHP1,50898
The alteration,50898
non-penetrative,50898
Genetic predisposition,50898
Missense mutation,50898
motor endplate,50898
Mascarene Islands,50898
marine turtle,50898
neuroprosthetic,50898
Protraction,50898
Isocitrate dehydrogenase,50898
intensified charge-coupled device,50898
Mir,50898
Al green,50898
ADAM17,50898
dolostone,50898
desert pavement,50898
12B,50898
ASIP,50898
sodium benzoate,50898
Computer model,50898
intracerebral hematoma,50898
sclerocornea,50898
AD 1,50898
random formation,50898
triple negative breast cancer,50898
trophic cascade,50898
Allopleuron,50898
merogony,50898
ARID5B,50898
Kidney biopsy,50898
knowledge assessment,50898
negative temperature,50898
brain-machine interfaces,50898
GDEPT,50898
FGF-23,50898
Afrikaans language,50898
GJB1,50898
sulphonamide,50898
Clorgyline,50898
Sabouraud,50898
aB,50898
glacier retreat,50898
NT3,50898
CCL1,50898
Omo River,50898
amyloid precursor,50898
Saccharum officinarum,50898
gabazine,50898
Isobaric,50898
BICEP2 experiment,50898
sociolect,50898
Conformer,50898
apocynin,50898
cucurbitacin,50898
cranio-maxillofacial trauma,50898
homoserine,50898
outgassing,50898
ATF1,50898
Hume,50898
Variance decomposition,50898
MUC5AC,50898
PIK3R2,50898
Tien Shan Mountains,50898
benzhydryl,50898
cadherins,50898
megaparsec,50898
pillow basalt,50898
EGR1,50898
robust control,50898
BAR domain,50898
excitation-contraction coupling,50898
Mesoamerica,50898
Enzyme-linked immunosorbent assay,50898
SLIT3,50898
cellular compartment,50898
riparian forest,50898
transgenesis,50898
thermal imager,50898
IL18R1,50898
centrosome,50898
Lobectomy,50898
sedges,50898
IER3,50898
DIDS,50898
EphA1,50898
UTE,50898
neuroprostheses,50898
Diest,50898
suvorexant,50898
Cdc25c,50898
Iron age,50898
deux fois,50898
SYK,50898
MYCL1,50898
DPP-4 inhibitor,50898
IL1R1,50898
SPTBN1,50898
Verhulst,50898
Underweight,50898
regulatory B cells,50898
CDQ,50898
antifungal medication,50898
microphthalmia-associated transcription factor,50898
dense granule,50898
SIGLEC10,50898
JUP,50898
USP4,50898
freeform,50898
Ravenna,50898
Seismic tomography,50898
energy dependency,50898
DSG2,50898
low-powered,50898
Copernicus,50898
dose fractionation,50898
MITF,50898
deep time,50898
Response Evaluation Criteria In Solid Tumors,50898
Gender variance,50898
Microbial ecology,50898
Phthalate,50898
Orellan,50898
Poser criteria,50898
23rd Party Congress,50898
Atmosphere Monitoring,50898
Ctnnb1,50898
isoxazole,50898
Gadd45a,50898
gas bearing,50898
Goal Attainment Scaling,50898
VAMP3,50898
neuropilin-1,50898
CDX1,50898
exocyst,50898
OX40 ligand,50898
Siberian Craton,50898
open system,50898
organ system,50898
RPTOR,50898
LMO1,50898
P2RX7,50898
Xilin Gol,50898
distributary,50898
Clinopyroxene,50898
pyonephrosis,50898
high culture,50898
interaction variable,50898
Universe today,50898
mail coat,50898
Liu Wei Di Huang Wan,50898
presenilin 2,50898
peripherally selective,50898
Neurodegenerative Disease,50898
Gait training,50898
PA 6,50898
matrix analysis,50898
Dynamic Global Vegetation Model,50898
Early Earth,50898
public aquaria,50898
fundamental matrix solution,50898
flying carpet,50898
phenyl-C61-butyric acid methyl ester,50898
InterPlanetary Network,50898
pessaries,50898
Social network analysis,50898
systemic autoimmune diseases,50898
cognitive load theory,50898
dense subspace,50898
Stentor,50898
open standard,50898
Cape Coast,50898
phase-transfer catalysts,50898
4-hydroxyphenyl acetate,50898
Acute Lymphoblastic Leukemia (ALL),50898
Agreement Forest,50898
ambulatory blood pressure monitoring,50898
robust optimization,50898
quadratic assignment problem,50898
Siebold,50898
Military Police,50898
domestic worker,50898
Habermasian,50898
data locality,50898
marinobufagenin,50898
Philip Kitcher,50898
radiant intensity,50898
Kernel regression,50898
hydroelectric power,50898
Glioblastoma Multiforme,50898
monatomic,50898
van Heerden,50898
free throw,50898
aerodynamic drag,50898
identity management,50898
epigeic,50898
nested function,50898
hyperspectral camera,50898
Accounting standard,50898
color-blindness,50898
Toumai,50898
closed manifold,50898
ferroportin,50898
confession,50898
systems dynamics,50898
Likert Scale,50898
data reporting,50898
inelastic collision,50898
thermoacidophilic,50898
landscape ecology,50898
situated cognition,50898
Mahwah,50898
placental hormones,50898
Lotka-Volterra model,50898
single-payer,50898
wnt pathway,50898
planetary system,50898
KAGRA,50898
Scaffolding,50898
microRNA sequencing,50898
corrosive substance,50898
FBS,50898
Prader-Willi Syndrome,50898
capture model,50898
extreme capsule,50898
coastal hazards,50898
aestivating,50898
parallel distributed processing,50898
cytotoxic T-lymphocyte antigen 4,50898
Hymenolepis diminuta,50898
operator ideal,50898
ZMYND11,50898
Common Agricultural Policy (CAP),50898
DMT,50898
SiN,50898
Noord/Zuidlijn,50898
Yokohama,50898
Toeplitz matrix,50898
Oedipus Rex,50898
SPRT,50898
Polanen,50898
self-insurance,50898
Essex,50898
Advanta,50898
European Spine Journal,50898
Cosmic Origins Spectrograph,50898
narrative logic,50898
mode deactivation therapy,50898
family matters,50898
dryland ecosystems,50898
long-term wear,50898
Treasury bond,50898
Glial cell,50898
Makarov,50898
private domain,50898
Crocuta crocuta,50898
Anesthesiology,50898
northern branch,50898
chytrid fungus,50898
number field,50898
Chronic Myeloid Leukemia,50898
endoprotease,50898
five-year survival,50898
SemEval,50898
microtektite,50898
purchasing power parities,50898
Physical disability,50898
The users,50898
Pelagia noctiluca,50898
chicory,50898
flood risk assessment,50898
hypoxic ischemic brain injury,50898
astronomical parameters,50898
firefly,50898
Gestalt,50898
Red Cross,50898
Hun Sen,50898
David Cameron,50898
multiprotein complex,50898
virtual team,50898
land values,50898
International Accounting Standard,50898
Ficedula albicollis,50898
georeference,50898
intensive livestock production,50898
brownfield,50898
logical quality,50898
Central Atlantic Magmatic Province,50898
McDonaldization,50898
African art,50898
Tulu,50898
gingival margin,50898
polyetheretherketone,50898
Jordan canonical form,50898
transpeptidase,50898
F16,50898
Medes Islands,50898
Downside,50898
parallel programming model,50898
firmicutes,50898
Brachidontes,50898
Basel Committee,50898
Regenerative medicine,50898
syllogism,50898
single mode fiber,50898
co-metabolism,50898
Belgrade,50898
negative symptom,50898
digital counter,50898
Antarctic krill,50898
Valois,50898
operating theatre,50898
Perciformes,50898
Land system,50898
e-tool,50898
One vision,50898
CNG,50898
Meshkat,50898
subtropical gyre,50898
centripetal acceleration,50898
Copaxone,50898
positive psychology,50898
Frank Ankersmit,50898
diesel fuel,50898
FairPlay,50898
Specific identification,50898
KIFs,50898
scarless wound healing,50898
pool region,50898
energy conversion devices,50898
Philippians,50898
Bilthoven,50898
legion,50898
Revised NEO Personality Inventory,50898
healthcare insurance company,50898
occupational health surveillance,50898
Gulen movement,50898
dualism,50898
SRGB,50898
World Heritage Site,50898
close friends,50898
Organizational learning,50898
Mars500,50898
first-countable,50898
fetal movement,50898
IWF,50898
Spinoza,50898
train station,50898
binary tree,50898
prodrome,50898
pi-calculus,50898
PAHO,50898
koinobiont,50898
bank holding companies,50898
congenital melanocytic nevi,50898
sheltered employment,50898
gley,50898
Laxatives,50898
Palaeoproterozoic,50898
airway hyper-responsiveness,50898
Desipramine,50898
Mesozoic platform,50898
Heteren,50898
bioaugmentation,50898
AASLD,50898
Toadstool Geologic Park,50898
Wnt7a,50898
disease registry,50898
Interferon-stimulated gene,50898
Bradford Hill Criteria,50898
Src inhibitor,50898
peritectic,50898
sharp edges,50898
supercontinent,50898
immunotoxic,50898
Leuconostoc,50898
non-parametric test,50898
sox10,50898
Kinesiology,50898
color vision defects,50898
polytrauma,50898
melange,50898
South African literature,50898
el verano,50898
saltworks,50898
C-terminal telopeptide,50898
quid pro quo,50898
Medvednica,50898
EYS,50898
metamorphic reaction,50898
CXCL6,50898
PRKACB,50898
ureterostomy,50898
Belgica,50898
egr1,50898
Rich,50898
fosb,50898
Chadronian,50898
Insolation,50898
emission factor,50898
Paenibacillus,50898
Maya Mountains,50898
South Africa House,50898
mEPSC,50898
klf2,50898
Republica,50898
World War Two,50898
coinage metals,50898
PRKACG,50898
gamma globulin,50898
adrenal dysfunction,50898
Mad2,50898
INDELs,50898
Rodinia,50898
PTK6,50898
Jurgensen,50898
Lake Turkana,50898
miotic,50898
Checa,50898
NP van Wyk Louw,50898
Phenocryst,50898
Stx1b,50898
PRKAR1A,50898
In vitro fertilisation,50898
testis cancer,50898
fluorescent labelling,50898
passaging,50898
feline sarcoma oncogene,50898
type V collagen,50898
tenascin C,50898
M1-2,50898
Rab3a,50898
Gorp,50898
Wyoming,50898
tema,50898
LMN,50898
oceanic basin,50898
PRKAR2A,50898
Rph3a,50898
Titanite,50898
DOC2A,50898
Sete Cidades,50898
DMSA,50898
FRK,50898
burette,50898
vitamin B2,50898
Sirtuin,50898
xaliproden,50898
commercial liberalism,50898
allocative efficiency,50898
chalcophile,50898
communication accommodation theory,50898
thatch,50898
Bergmann,50898
SELENE,50898
tissue elements,50898
Arnol'd,50898
civilian power,50898
invariant factor,50898
economic planning,50898
PowerGlove,50898
steam reforming,50898
QAP,50898
Neurosurgery,50898
Cardan,50898
vitrification,50898
coin flip,50898
Tallinn,50898
virtue ethics,50898
Ultimate strength,50898
Argos,50898
Potentia,50898
transcoding,50898
social enterprise,50898
energy market,50898
diphosphane,50898
GATE,50898
interbank market,50898
Jindalee,50898
Byzantine law,50898
language policy,50898
Claude Lefort,50898
Shuttle Radar Topography Mission,50898
digraphs,50898
Gaussia,50898
term graph,50898
motion study,50898
Personality trait,50898
gambling addiction,50898
Aquinas,50898
Kula,50898
strange B meson,50898
discrete choice analysis,50898
microeconomics,50898
Vineland Adaptive Behavior Scale,50898
heath community,50898
System Identification,50898
exponential smoothing,50898
Foxhound,50898
MLEM,50898
dynamic connectivity,50898
sodium molybdate,50898
Israelite,50898
Harlem,50898
interdiscursive,50898
gross margin,50898
brownfield site,50898
dip-coating,50898
French hospital,50898
Bereiter,50898
licence plate,50898
stereo headphones,50898
Mediterranean Basin,50898
biological soil crusts,50898
immune cell trafficking,50898
anogenital distance,50898
Methylnaltrexone,50898
diauxie,50898
Panthera leo,50898
CHRNG,50898
Blood donation,50898
Atlanticism,50898
work content,50898
Hokkaido,50898
Mulago National Referral Hospital,50898
Jordan block,50898
perfect rationality,50898
Structured Query Language (SQL),50898
Ursus,50898
X ray,50898
multi-party system,50898
The Carolinas,50898
olfactory nerves,50898
sense-making process,50898
double standard,50898
weblog,50898
Functional requirements,50898
IG class switching,50898
Negative feedback,50898
Tikhonov regularization,50898
coronary catheterization,50898
tealight,50898
Pisa,50898
carbohydrate antigen 19-9,50898
epigeous,50898
Stockholm Convention,50898
Cambridge City,50898
occlusal splint,50898
Euphausia superba,50898
pE,50898
perrhenate,50898
broad recognition,50898
political question,50898
multiple system atrophy (MSA),50898
Temple University,50898
temperate zone,50898
PRMT1,50898
stardust,50898
transitive closure,50898
Roman Iron Age,50898
solidi,50898
audio letter,50898
combat sports,50898
PODC,50898
fire insurance,50898
Damrak,50898
Jido,50898
Dickens,50898
teleoperation,50898
V12,50898
Pyrimidine metabolism,50898
Unilever,50898
cloaca,50898
motor plan,50898
third-person,50898
change-up,59673
sternocleidomastoid muscle,50898
dynorphin A,50898
Intranet,50898
absolutely summable,50898
IDDS,50898
Eurocentric,50898
CONSORT 2010 statement,50898
DIY,50898
Bring Your Own Device (BYOD),50898
red blood cell distribution width,50898
N-glycosylated,50898
hypertriglyceridaemia,50898
13 hours,50898
Zuidplas,50898
Winterswijk,50898
anterior tibial artery,50898
tricalcium phosphate,50898
final good,50898
nasopharyngeal airway,50898
software product management,50898
avolition,50898
medicago,50898
Xishuangbanna,50898
Dorset,50898
polder model,50898
non-enhancing,50898
hard candy,50898
Herten,50898
physiological models,50898
Sioux Falls,50898
pickled,50898
screwdriver,50898
androphilic,50898
Volatile Organic Compounds (VOCs),50898
binary fission,50898
gonion,50898
representational art,50898
asteroid belt,50898
online chat,50898
reading span,50898
Baix Llobregat,50898
Zagazig,50898
Bioassay,50898
Moorfields Eye Hospital,50898
knowledge organization,50898
bag-valve mask,50898
georeferencing,50898
branch cut,50898
bearded dragon,50898
Tropenmuseum,50898
Emotional approach coping,50898
bite registration,50898
Ex-ante,50898
Sequential Monte Carlo method,50898
Sulfolobus acidocaldarius,50898
Breakout,50898
Lawrence Erlbaum Associates,50898
Dussen,50898
Artin representation,50898
Radio-frequency identification,50898
Podisus maculiventris,50898
NeoTethys,50898
structured thinking,50898
PRKAR2B,50898
Dodo,50898
hominid,50898
vitamin B6,50898
20 cigarettes,50898
VSMOW,50898
ependymal cells,50898
Medical ethics,50898
1 Ga,50898
carbonaceous chondritic,50898
Vertebrate Paleontology,50898
The Poet,50898
TUBB3,50898
SIRT,50898
cardiorespiratory arrest,50898
col,50898
La introduccion,50898
feldspathic,50898
Type V collagen,50898
Dabrafenib,50898
Schering Plough,50898
titanites,50898
Awash,50898
ISEH,50898
Leucopenia,50898
cheloniid,50898
MMP13,50898
Gona,50898
desconocida,50898
Dacarbazine,50898
Ena,50898
synaptic processing,50898
Endothelin 1,50898
MNL,50898
McCrae,50898
Chinese law,50898
ETO,50898
secondary brain injury,50898
eternal Logos,50898
genodermatosis,50898
care inspectorate,50898
budget constraint,50898
Vitamin D receptor,50898
deafblindness,50898
glomerular mesangium,50898
Olman,50898
United Nations Environmental Program,50898
XYZ color space,50898
Center-right,50898
pedunculopontine nucleus,50898
anteroventral periventricular nucleus,50898
hydrograph,50898
Pain management,50898
memetic algorithms,50898
CUDA,50898
virilize,50898
poly(ADP-ribose) polymerase,50898
future weather,50898
conflicting emotions,50898
machinery industry,50898
web portal,50898
The school teacher,50898
Cocoon,50898
CLR James,50898
Tunable laser,50898
Sabadell,50898
drin,50898
k-nearest neighbors,50898
Ricla,50898
Tetrad,50898
Thermo Fisher Scientific,50898
Cuitzeo,50898
combi,50898
Pentecostalism,50898
chordate,50898
scientific law,50898
INCAT,50898
cyberwarfare,50898
water injection,50898
Cardiovascular anomalies,50898
Scoliosis Research Society,50898
SDHAF2,50898
bisections,50898
anamnesis,50898
wet mass,50898
conspicuous consumption,50898
exponential moving average,50898
strain hardening,50898
celtic field,50898
ecological light pollution,50898
disconformably,50898
Arnon Grunberg,50898
CHRNA1,50898
Yakutia,50898
Yunnan Province,50898
footprint tools,50898
ligand docking,50898
zero-coupon,50898
Saxony,50898
Jadad scale,50898
GROMIT,50898
Motor imagery,50898
Columbia University,50898
load factor,50898
Propidium monoazide,50898
KNMI,50898
Marine spatial planning,50898
chromogranin A,50898
Galois group,50898
tetrahydropyrimidine,50898
NSTEMI,50898
tunic,50898
sedimentary organic matter,50898
generalized function,50898
complex interdependence,50898
ectomycorrhiza,50898
NiSO,50898
Norman Maclean,50898
asociality,50898
Ancora,50898
computer-based testing,50898
heeling,50898
Self-directedness,50898
Consensus clustering,50898
stard,50898
sensor fusion,50898
common cockle,50898
Centrifuge,50898
B. laevigata,50898
entoptic phenomena,50898
pioneer species,50898
diesel exhaust,50898
maxillomandibular fixation,50898
pulmonary medicine,50898
Whiplash injury,50898
inertial measurement unit,50898
iterative development,50898
offshore wind industry,50898
MGWR,50898
GARCH model,50898
Macrocephaly,50898
EctHR,50898
interlaced,50898
electromagnetic pulse,50898
Sufficiently large,50898
climate change scenario,50898
fecal microbiota transplantation,50898
diatomic molecule,50898
SoC,50898
Wharton,50898
endomorphin,50898
sinter deposits,50898
Rokin,50898
Australian Canadian,50898
mixed integer programming,50898
SiP,50898
solanezumab,50898
Kola Peninsula,50898
Beta-lactam,50898
Hebrew Bible,50898
micropatterning,50898
Glycoprotein IIb/IIIa inhibitors,50898
Kombolcha,50898
stannate,50898
firefighter,50898
concentrating solar power,50898
prosthetic eye,50898
Winneba,50898
queer,50898
motion platform,50898
mean-reverting process,50898
gold ring,50898
Ordos,50898
malignant fibrous histiocytoma,50898
simeprevir,50898
ancova,50898
nuclear technology,50898
Haarlem,50898
flavin adenine dinucleotide,50898
Greek mythological,50898
Post Traumatic Stress Disorder (PTSD),50898
SLC40A1,50898
South Dakota,50898
European Urology,50898
R* rule,50898
LRT,50898
phytotoxicity,50898
colicky pain,50898
Ruma,50898
version management system,50898
Achimota,50898
Baylor,50898
Ab Initio,50898
The professionals,50898
Pogona vitticeps,50898
Bleak House,50898
hierarchical Bayesian model,50898
Assistive technology,50898
"Suffolk County, New York",50898
multipole expansion,50898
TP53INP1,50898
norm-referenced,50898
compatibilism,50898
decisional balance,50898
Twenty-first,50898
Pearl River (China),50898
trial marriage,50898
Latin hypercube,50898
pressure bandage,50898
Belo Horizonte,50898
2009 European Elections,50898
groundwater model,50898
chewing tobacco,50898
flexor carpi radialis,50898
emergency physician,50898
specific weight,50898
NZ$,50898
kickboxing,50898
real climate,50898
speech repetition,50898
casi,50898
Merck KGaA,50898
wat,50898
Darmstadt,50898
urinoma,50898
endothelin receptor type B,50898
fatigue loads,50898
KIT ligand,50898
reborrowing,50898
municipal solid waste,50898
Oedipus,50898
Keizersgracht,50898
Haitian Revolution,50898
positive deviance,50898
ergogenic aid,50898
CHRND,50898
track cyclists,50898
triose phosphate isomerase,50898
dendritic calcium spikes,50898
motor cognition,50898
portal circulation,50898
erythrosine,50898
cervical vertebrae,50898
indecomposable,50898
IAS 39,50898
Dynamic factor,50898
DOCK6,50898
pseudometric,50898
Wilhelm Windelband,50898
Copeland,50898
Revised NEO personality inventory,50898
hash function,50898
hexahedral,50898
undifferentiated pleomorphic sarcoma,50898
Macrolide,50898
Aurora kinase,50898
Europeanist,50898
Adaptive management,50898
direct reprogramming,50898
Mekong,50898
Studer,50898
KATZ,50898
MONEE,50898
linear continuum,50898
capital intensity,50898
Scanning Electron Microscopy,50898
Managed care,50898
isotopic distribution,50898
time zone,50898
management learning,50898
black garden ant,50898
evaporative loss,50898
Dutch Supreme Court,50898
Borg scale,50898
natural park,50898
Judi Chamberlin,50898
SCARB2,50898
subsistence agriculture,50898
active perception,50898
child lying,50898
Diels Alder,50898
type IV pili,50898
bronchial tree,50898
pomalidomide,50898
Lunar Reconnaissance Orbiter,50898
REACH Regulation,50898
Verwoerd,50898
Dehalococcoides,50898
synthetic membranes,50898
great crested newt,50898
PAH gene,50898
axiology,50898
IKS,50898
Roughly speaking,50898
Infocom,50898
polychoric correlation,50898
splenic marginal zone lymphoma,50898
craniofacial surgery,50898
angel,50898
special care dentistry,50898
Holy Spirit,50898
Modigliani,50898
Stxbp1,50898
proxy variables,50898
vigilante,50898
irreflexivity,50898
FAT4,50898
Waltham,50898
superparamagnetic iron oxide nanoparticles,50898
speech community,50898
SLC46A1,50898
SIR model,50898
Arsi Negele,50898
bony fish,50898
non-destructive testing,50898
silver ingot,50898
Entrectinib,50898
psychometric function,50898
Gas Chromatography,50898
Functional magnetic resonance imaging (FMRI),50898
standardized patients,50898
radiopaque,50898
deontological ethics,50898
stay awake,50898
Disability Studies,50898
SLC5A7,50898
Wald test,50898
butyrylcholinesterase,50898
eustatic sea level,50898
pars compacta,50898
prostaglandin-endoperoxide synthase,50898
cerumen,50898
Anomaly Scan,50898
phase-shift,50898
life imprisonment,50898
Implicit self-esteem,50898
hemoglobin H,50898
VDAC1,50898
boranes,50898
periventricular nucleus,50898
Peshawar District,50898
discount bond,50898
climate cycle,50898
arachidonic acids,50898
Pridoli,50898
Longissimus,50898
NRAS gene,50898
acanthosis nigricans,50898
Midwestern United States,50898
asphalt,50898
GPR126,50898
GRB14,50898
Safety climate,50898
bulimia,50898
North American Spine Society,50898
transition matrices,50898
APDM,50898
co-dimension,50898
misgivings,50898
cuckoo search,50898
Dynamical systems theory,50898
colonic microbiota,50898
anterior superior iliac spine,50898
Ten Commandments,50898
daclatasvir,50898
ellipsis,50898
Chronoamperometry,50898
SLC4A4,50898
Psychopathy Checklist,50898
stoichiometric matrix,50898
2018 World Cup,50898
pulse shaping,50898
CALIPSO,50898
metalaxyl,50898
EXOC2,50898
AD 2,50898
key skills,50898
deindustrialization,50898
pioneer group,50898
Malua,50898
Molecular pathology,50898
Animal Practice,50898
central-west region,50898
Protein tyrosine phosphatase,50898
primary memory,50898
Zygomatic arch,50898
BEZ,50898
energy security,50898
ADAMTS9,50898
genetic discrimination,50898
heart beats,50898
Atlantic ocean,50898
E. superba,50898
Borel space,50898
Internal Revenue Service,50898
oligofructose,50898
MODerate resolution Imaging Spectroradiometer,50898
ten sessions,50898
ARHGAP31,50898
inline skating,50898
meaning system,50898
cervical spine fracture,50898
Phnom Penh,50898
facial trauma,50898
Mean Squared Error,50898
FERMT2,50898
VNIR,50898
Dickensian,50898
negativity bias,50898
Eating Disorder Inventory,50898
ground beetle,50898
macitentan,50898
radiometric age,50898
Inparanoid,50898
interval arithmetic,50898
undeniable,50898
L/T,50898
Myotonia,50898
palindromic sequence,50898
ischial tuberosity,50898
Norovirus,50898
thymidylate synthase inhibitor,50898
T52,50898
voodoo doll,50898
liver inflammation,50898
gamma glutamyltransferase,50898
met-enkephalin,50898
metabolite pool,50898
phytochrome,50898
Tricyclic antidepressants,50898
eSET,50898
leprosarium,50898
gut symbionts,50898
scanning near-field optical microscopy,50898
Connectedness,50898
ADAR,50898
Thomas Aquinas,50898
tellurocysteine,50898
interstrand crosslink,50898
LP-spaces,50898
Science Museum,50898
comprehensive school,50898
input-output tables,50898
cuneiform script,50898
migrant citizens,50898
Holothuria forskali,50898
radiation-induced lung injury,50898
delta potential,50898
speech audiometry,50898
NEO PI-R,50898
Lasius,50898
Hangzhou,50898
flexifuel,50898
Soweto,50898
3DOF,50898
Weihe,50898
Renewable Energy Sources Act,50898
Tate,50898
denominationalism,50898
hemoglobin variants,50898
iBF,50898
geostationary,50898
Gaza,50898
Firefly luciferase,50898
ESTEC,50898
Dissertation Abstracts International,50898
aestivation,50898
simple lens,50898
monolithic column,50898
general judgment,50898
dysmenorrhoea,50898
whole-genome sequences,50898
periodic trends,50898
Terrassa,50898
Cognitive vulnerability,50898
Thermal decomposition,50898
Eriksen Flanker Task,50898
compression ratio,50898
angular frequency,50898
paleophysiology,50898
Navier-Stokes equation,50898
Masculinization,50898
Brakel,50898
"fructose 1,6-bisphosphate aldolase",50898
transsphenoidal surgery,50898
resazurin,50898
podzolization,50898
compatibilist,50898
mass chromatogram,50898
obesogens,50898
Plan-Do-Check-Act cycle,50898
National Cancer Research Institute,50898
flavonoid biosynthesis,50898
RAPSN,50898
Congruence,50898
Bear Stearns,50898
spatial studies,50898
twin registry,50898
Mann Gulch,50898
singular homology,50898
Premier League,50898
platelet activity,50898
entertainment experience,50898
repeated measures anova,50898
TFRC,50898
Novelty seeking,50898
poikilothermic,50898
climatic determinism,50898
Serbian Orthodox,50898
Emory,50898
sleeping patterns,50898
totally ordered,50898
equity risk premium,50898
coanalytic,50898
MicroRNA,50898
NeuroImage,50898
coherent anti-Stokes Raman spectroscopy,50898
Plastic Surgery,50898
Braconidae,50898
experimenter bias,50898
immunobiology,50898
cryoelectron microscopy,50898
North China,50898
toothache,50898
group emotion,50898
command hallucinations,50898
Nelson-Siegel,50898
krav maga,50898
material elements,50898
hard rock,50898
Interstitial lung disease,50898
norm function,50898
quality policy,50898
visual effects,50898
Algae,50898
Eighty Years' War,50898
Dendritic Cell,50898
respiratory physiology,50898
compatibilists,50898
Pragian,50898
environmental noise,50898
forward-scattered,50898
Bhaktapur district,50898
Dijle,50898
Four trials,50898
pollution tax,50898
minimum data set,50898
krypton-85,50898
Lehman Brothers,50898
GRenoble,50898
Coq,50898
FiO2,50898
IFIH1,50898
Ku band,50898
plating efficiency,50898
Logos,50898
Gender Identity Disorder,50898
relay 1,50898
Dura Europos,50898
deep trap,50898
Agalychnis callidryas,50898
SlideWiki,50898
Karenia,50898
shortwave radiation,50898
Electroencephalogram,50898
fluvastatin,50898
emergent behaviour,50898
Microalgae,50898
MPEG-4,50898
Principal factor,50898
staffing models,50898
Monterey Bay,50898
Agenesis,50898
semantic class,50898
Online consultation,50898
p-hacking,50898
penalty shoot-outs,50898
OZM,50898
TNXB,50898
global MAP,50898
inertial mass,50898
Meteosat,50898
R-rated,50898
Atlanticist,50898
bovine cattle,50898
interphalangeal joint,50898
Joint pain,50898
squat exercise,50898
FabLab,50898
HNF4A,50898
Polynomial regression,50898
CKM,50898
Vargula hilgendorfii,50898
Cauchy,50898
blood sugar,50898
deoxynucleotides,50898
assertive outreach,50898
M-45,50898
Central Powers,50898
depolarization ratio,50898
"1,5-anhydroglucitol",50898
Pogonus,50898
Cave del Predil,50898
holistic management,50898
road traffic collision,50898
flying disc,50898
policy network,50898
agri-environment scheme,50898
Traffic safety,50898
Galil,50898
Protocol I,50898
Harm avoidance,50898
Royal Meteorological Institute,50898
Brahmaputra,50898
lone electron pairs,50898
General Hospital Psychiatry,50898
rove beetle,50898
Tygerberg Hospital,50898
cellular membrane,50898
bicycle-friendly,50898
pAg,50898
ISN,50898
SMARCAL1,50898
Popper,50898
The gathering,50898
Dental Implant,50898
vection,50898
Myositis,50898
dynamic testing,50898
Free radicals,50898
South Atlantic Gyre,50898
labor induction,50898
magnetic north,50898
Cohabitation,50898
downdrift,50898
bacterial efflux pumps,50898
enactivist,50898
APEC,50898
Take Care,50898
mean-reverting,50898
Fraxinus excelsior,50898
Baetis,50898
Cardiac magnetic resonance imaging,50898
riparian zone,50898
infraorbital nerve,50898
dry eye,50898
image response,50898
signal detection theory,50898
thermal ionization mass spectrometry,50898
Scapular,50898
Lysibia nana,50898
odometer,50898
Uncertainty propagation,50898
Yao,50898
FINA World Championships,50898
Computation time,50898
7812,50898
helicopter emergency medical services,50898
RyR2,50898
SCOPUS,50898
quarantine,50898
eigenvalue decomposition,50898
seasonal affective disorder,50898
Reward dependence,50898
ASEAN,50898
efference copy,50898
gelatinous zooplankton,50898
mancozeb,50898
Dorna,50898
quickening,50898
sawfly,50898
L-5,50898
L-series,50898
Convection,50898
FBM,50898
neutral body posture,50898
glycome,50898
Staphylinus,50898
John Jackson,50898
Self-esteem,50898
Old Red Sandstone,50898
benzodiazepine lorazepam,50898
PROCEDURES,50898
Earth sciences,50898
Interpersonal Reactivity Index,50898
Durban Platform,50898
staying alive,50898
minimax regret,50898
Diplolepis,50898
Random Forests,50898
Psycho,50898
laser drilling,50898
molecular probes,50898
operator norm,50898
cofinitely,50898
Chert,50898
Mendelian inheritance,50898
Latent growth modeling,50898
Testaccio,50898
Natalie,50898
Lucite,50898
cyclic nucleotide phosphodiesterase,50898
Yokneam,50898
FcRI,50898
western diet,50898
SEPT9,50898
sexual diversity,50898
double-pass,50898
zygomatic,50898
developmentalism,50898
synchronizability,50898
cinchona,50898
aporia,50898
freshet,50898
Bicycle-friendly,50898
Dosimetry,50898
Vastus lateralis muscle,50898
Steglich esterification,50898
Muscle strain,50898
dry summer,50898
Europeanism,50898
soft law,50898
Dynamic causal modelling,50898
Can Tho,50898
Zheng Zhi,50898
Duke University Medical Center,50898
idiopathic environmental intolerance,50898
Piptatherum,50898
Gulf Labor,50898
zeitgeist,50898
ratio test,50898
SIGAM,50898
Indium,50898
esophageal motility disorder,50898
Slavophile,50898
Meghna,50898
Coetzee,50898
Seismograph,50898
razor,50898
mental health provider,50898
reactive transport models,50898
floribunda,50898
E9,50898
aquation,50898
monomorphic ventricular tachycardia,50898
sublingual gland,50898
Ili River,50898
Cannabis withdrawal,50898
tachypnoea,50898
The diamonds,50898
subrepresentation,50898
orexin receptor 1,50898
proof assistant,50898
Post-traumatic Stress Disorder,50898
Euler rotation,50898
Cytochrome P450 2D6,50898
LEH,50898
Hadley Cell,50898
racquet,50898
national societies,50898
Thermal resistance,50898
muesli,50898
narrative inquiry,50898
calcium ascorbate,50898
Isothermal titration calorimetry,50898
endocrine disease,50898
R-squared,50898
American Thyroid Association,50898
Cape Fear River,50898
SMAD7,50898
Representative Concentration Pathways,50898
median household income,50898
countable tightness,50898
EFQM excellence model,50898
Qilian mountains,50898
shear strength test,50898
duodenal biopsies,50898
Glioblast,50898
alpha version,50898
Hydroxylapatite,50898
RAMP3,50898
gammaproteobacteria,50898
Everettia,50898
cerebral peduncles,50898
Social integration,50898
VGB,50898
Root-mean-square,50898
text messaging,50898
lava tube,50898
septal myectomy,50898
Athalia,50898
dendroclimatology,50898
adaptation capacity,50898
cosmogony,50898
Seasonal Pattern Assessment Questionnaire,50898
central retinal vein,50898
thermal plumes,50898
Sciex,50898
Systems theory,50898
Chloroflexi,50898
long term video-EEG monitoring,50898
molecular vibration,50898
anterior prefrontal cortex,50898
target Country,50898
parallel running,50898
bromodomain,50898
Group E,50898
ground glass,50898
optical isolator,50898
Elsa Joubert,50898
TNNC1,50898
community studies,50898
Lie brackets,50898
Friesland,50898
Chondroblast,50898
coarse facial features,50898
immunoreceptor tyrosine-based inhibitory motif,50898
pressure transducer,50898
Max Nordau,50898
software projects,50898
High-throughput sequencing,50898
multifactorial inheritance,50898
falsifiable,50898
view factor,50898
hashish,50898
Vantaa,50898
Tayassu,50898
Double Effect,50898
cephalometric,50898
Friendswood,50898
oma,50898
SNAr,50898
alkali olivine basalts,50898
argon-39,50898
non-adiabatic couplings,50898
inter-city rail,50898
suboptimal health,50898
Monodisperse,50898
polarization mode dispersion,50898
Frequency response,50898
Barbaricum,50898
DSC2,50898
Fordist,50898
Acetonitrile,50898
m11,50898
The driver,50898
white-collar crime,50898
Taurine,50898
Autolog,50898
abortion pill,50898
North West,50898
economic damages,50898
pUC18,50898
Diffusion MRI,50898
free-air gravity anomalies,50898
foreign policy analysis,50898
archaella,50898
pulmonary embolus,50898
Uterine rupture,50898
general building,50898
Statistics Canada,50898
AKT2,50898
ACS Nano,50898
paroxysm,50898
time-lapse microscopy,50898
Sandwich,50898
GOLM,50898
sterol regulatory element binding protein,50898
ProQuest,50898
English region,50898
Frontal sinus,50898
Kennemerland,50898
Eugene Dubois,50898
mudrock,50898
neuroserpin,50898
Barracuda,50898
SD 8,50898
truncus arteriosus,50898
endoribonuclease,50898
simple linear regressions,50898
gravel pit,50898
abattoir,50898
myosins,50898
tracheotomy,50898
Sequence stratigraphy,50898
political religion,50898
live attenuated vaccines,50898
neonaticide,50898
acetabular fracture,50898
Reactive arthritis,50898
trial trenching,50898
hepatic arteries,50898
Entomopathogenic fungi,50898
flow graph,50898
motile cilia,50898
Monoglyceride,50898
trichloroethane,50898
choanocytes,50898
multicore,50898
Proclus,50898
Alpha-2-macroglobulin,50898
Darwinian evolution,50898
azoospermia factor,50898
Rietberg,50898
hypnotherapy,50898
multidrug resistant tuberculosis,50898
Galactic Bulge,50898
Gulag,50898
agomelatine,50898
Game theory,50898
natural resource curse,50898
network robustness,50898
degree sequence,50898
Tano,50898
Developmental dyslexia,50898
Taherzadeh,50898
prothrombin complex concentrate,50898
intelligent tutoring system,50898
Nuclear pore,50898
allostasis,50898
Ion channel,50898
gaydar,50898
Neurotransmission,50898
Spongilla,50898
powder diffractometer,50898
Nauta,62864
Sodium channel,50898
Lumbar spinal stenosis,50898
partial hospitalization,50898
San Francisco Bay,50898
Human African Trypanosomiasis,50898
Windthrow,50898
solar collector,50898
Sublingual immunotherapy,50898
Iranian diaspora,50898
financial derivative,50898
Brain Trauma Foundation,50898
mindfulness-based cognitive therapy,50898
LRQ,50898
macropore,50898
Content-based image retrieval,50898
online algorithm,50898
sss,50898
Unemployment insurance,50898
Abacavir,50898
bipolar nebula,50898
great disappointment,50898
finite automata,50898
developmental genetics,50898
remnant cholesterol,50898
epistemic logic,50898
Othering,50898
object file,50898
situational crime,50898
anterior cruciate ligament injury,50898
Giardia intestinalis,50898
Epidermodysplasia verruciformis,50898
The free movement,50898
angiotensin receptor,50898
Conjugated linoleic acid,50898
Dynamic Bayesian Network,50898
Heredia,50898
Financial innovation,62901
Bradwardine,50898
Ediacaran,50898
The Letter,50898
meningococcemia,50898
Splenic artery,50898
Electron density,50898
spirit possession,50898
Intermediate filament,50898
Monetary policy,50898
algebraic specification,50898
Fomalhaut,50898
The Expert,50898
Amaga,50898
Richard McGuire,50898
Summoner,50898
war crime,50898
Sleuth,50898
water policies,50898
diffuse idiopathic skeletal hyperostosis,50898
tuberculosis vaccines,50898
soft-collinear effective theory,50898
Quantum cryptography,50898
JD,50898
ecological sanitation,50898
Annihilation,50898
Dihydropyrimidine dehydrogenase deficiency,50898
Belgian parliament,50898
creditor,50898
chaetognath,50898
Critical limb ischemia,50898
Jealousy,50898
Bed rest,50898
struvite,50898
master clock,50898
Supernova remnants,50898
The Ultimatum,50898
marketing authorization,50898
Gaussian quadrature,50898
tetracyclines,50898
D-Cycloserine,50898
Amos 1,62942
West European politics,50898
process chemistry,50898
Upper West,50898
Balearic Islands,50898
L-aspartate,50898
NOPs,50898
Autonomic Nervous System,50898
brain drain,50898
Hidalgo,50898
Veterinary science,50898
Cryoablation,50898
The threats,50898
Enderlein,50898
Vasoactive intestinal peptide (VIP),50898
Grid systems,50898
justificationism,50898
heparan sulfate proteoglycan,50898
hornbeam,50898
Social isolation,50898
location theory,50898
huperzine A,50898
occupational closure,50898
Commercial off-the-shelf,50898
Brachiopod,50898
RC time constant,50898
I.S.,50898
cyclin dependent kinase,50898
glycogenosis type IV,50898
Bosman,50898
wheelchair tennis,50898
Cerium,50898
analytic-synthetic distinction,50898
Polysemy,50898
split-brain,50898
NSIs,50898
G-S,50898
superconductive,50898
VFTS 682,50898
digital traces,50898
Hyperphosphatemia,50898
Turing reducible,62983
mitigation scenarios,50898
cerebrotendinous xanthomatosis,50898
mode-locking,50898
Human-computer interaction,50898
scientific misconduct,50898
Protochlorophyllide,50898
Cordyceps,50898
flexible labour market,50898
2015 United Nations Climate Change Conference,50898
GRB 020813,50898
Body Shop,50898
Vibrational circular dichroism,50898
iridocyclitis,50898
episulfide,50898
Noise-induced hearing loss,50898
twin boundaries,50898
Varicella-zoster virus,50898
illusory motion,50898
methyl tert-butyl ether,50898
DiOGenes,50898
Travel visa,50898
Hepatoblastoma,50898
non-abelian,50898
financialization,50898
psychophysiology,50898
Cao,50898
therapeutic indices,50898
carbon-neutral,50898
matronae,50898
RFID (Radio Frequency Identification),50898
4-chlorophenol,50898
Theatresports,50898
false-belief task,63016
TTT,50898
holomorphic map,50898
Typhoid fever,50898
J Hum Genet,50898
Egoism,50898
Titus,50898
Hanse,50898
laser altimetry,50898
Drug policy,50898
Varian Medical Systems,50898
Class War,50898
Aortic stenosis,50898
Morality plays,50898
covering group,50898
paleography,50898
topographical disorientation,50898
fluid-structure interaction,50898
covalent organic frameworks,50898
thermally dimorphic,50898
Focal nodular hyperplasia,50898
European copyright law,50898
THOMAS,63038
renal ectopia,50898
Maasai,50898
basic hypergeometric function,50898
ClustalW,50898
portmanteau test,50898
Las Cumbres Observatory,50898
Organa,50898
contentious politics,50898
ESN,50898
Sodium channels,50898
exchange rate risk,50898
KCNH1,50898
antineutrophil cytoplasmic antibodies,50898
Pierpont,50898
incisive canal,50898
Thymic stromal lymphopoietin,50898
Cost Benefit Analysis,50898
political game,50898
Ibudilast,50898
secularised,50898
Cryptococcosis,50898
bond fluctuation model,50898
Donders,50898
Iberian Chain,50898
Glycosylphosphatidylinositol,50898
Alveolar echinococcosis,50898
Cope rearrangement,50898
acanthocercus,50898
impedance matching,50898
Beelen,50898
Long-tailed Porcupine,50898
Asia-Pacific Partnership,50898
EWI,50898
public television,50898
MoO3,50898
prime number theorem,50898
wind turbine,50898
sequential game,50898
Human coronavirus 229E,50898
New medicines,50898
la geometrie,50898
The List,50898
Phys Rev,50898
Evangelicalism,50898
Power Law,50898
PowerPoint,50898
Sacral nerve,50898
secondary palate,50898
heteroclinic network,50898
racing flats,50898
ectopia lentis,50898
Amyotrophic lateral sclerosis,50898
Internal jugular,50898
THAP1,50898
Wigner-Seitz radius,50898
cycloisomerization,50898
Altmetric,50898
trait theory,63096
4-connected,50898
Ectopic pancreas,50898
Horizon 2020,50898
Spirit possession,50898
Acetabular,50898
Rho family,50898
Lophelia pertusa,50898
Heparanase,50898
Case Histories,50898
Submerged,50898
ABPN,50898
records management,50898
test validity,50898
fulvenes,50898
prostatic obstruction,50898
Mesalazine,50898
Multislice,50898
backhaul,50898
Shwachman-Diamond Syndrome,50898
Seminal fluid,50898
Loggerhead turtle,50898
MARTE,50898
Cognitive neuroscience,50898
organisational behaviour,50898
birthday problem,50898
Eva Kallin,50898
West University,50898
Core stability,50898
Pb-2,50898
pure red cell aplasia,50898
4-aminobutyrate aminotransferase,50898
PROM1,50898
Macrophage migration inhibitory factor,50898
closed-circuit television,50898
neo-conservatism,50898
Ca12,50898
Bardeen,50898
Observational learning,50898
self-avoiding walk,50898
therapeutic touch,50898
Gold nanorods,50898
relationship marketing,50898
plurisubharmonic function,50898
equestrian sports,50898
alpha-glucosidase inhibitor,50898
neoliberalizing,50898
Abiraterone acetate,50898
Gromov,50898
A18,50898
shape memory alloy,50898
Msx2,50898
Schwannomatosis,50898
perfusion MRI,50898
Evoked potentials,50898
Digital subtraction angiography,50898
mediatised,50898
Synaptophysin,50898
MutS,50898
Information governance,50898
Crambe,50898
LibraryThing,50898
playmakers,50898
Relapsing fever,50898
Salivary glands,50898
alken,50898
Formal thought disorder,50898
first-order theory,50898
Distillation,50898
Albanian,50898
angiosarcoma,50898
Bargh,50898
ventilator-associated lung injury,50898
Bonapartist,50898
pincer ligand,50898
Ocriplasmin,50898
cereblon,50898
Bass diffusion model,50898
data paper,50898
Fesoterodine,50898
TIME,50898
context theory,50898
detective,50898
Yunnan,50898
functional obsolescence,63180
dust storm,50898
Chronic cerebrospinal venous insufficiency,50898
wind farm,50898
Anton Rupert,50898
chronic solvent-induced encephalopathy,50898
Maastricht Treaty,50898
METEOR,50898
equivalent variation,50898
Royal Melbourne Hospital,50898
Waist-hip ratio,50898
Erythrocytes,50898
smartglasses,50898
Benign prostatic hyperplasia,50898
Gedankenexperiment,50898
Guinea Bissau,50898
Kanazawa,50898
pessary,50898
triisopropylsilyl,50898
language teaching method,50898
enantioselective synthesis,50898
Roscoff,50898
mathematical logic,50898
Two-phase flow,50898
dynamic assessment,50898
two-candidate,50898
Piriformospora indica,50898
S&D,50898
Thyolo District,50898
Animal communication,50898
Core temperature,50898
"1,3-dioxolane",50898
MicroRNA-21,50898
Isotope dilution,50898
Melita,50898
silymarin,50898
high-functioning autistic,50898
Evert,50898
supervised learning,50898
sustainable regional development,50898
physisorption,50898
L-phenylalanine,50898
Open Innovation,50898
distribution theory,50898
ECSS,63224
Mexico City,50898
Ian Hacking,50898
ALE SMIDTS,50898
genital prolapse,50898
Banach algebra,50898
Multijet,50898
Magnetic particle imaging,50898
HNS,50898
hydantoin,50898
PEA15,50898
dehumanisation,50898
dyserythropoiesis,50898
quetiapine,50898
nHz,50898
smear test,50898
Dental implant,50898
proton-coupled electron transfer,50898
SMT group,50898
Endocarditis,50898
Visual field,50898
Urine culture,50898
otolaryngologist,50898
FTR,50898
B. hermsii,50898
miravirsen,50898
CDR loops,50898
characteristic class,50898
Zlatibor,50898
Y-maze,50898
petro-,50898
green development,50898
NINDS,50898
perineurium,50898
Procyon,50898
H2AFX,50898
alternative culture,50898
sycamore maple,50898
SFL,50898
discotheque,50898
granular cell tumour,50898
Barca,50898
Electroantennography,50898
Membrane lipids,50898
parameterized family,50898
tT4,50898
NCQ,50898
COMET group,50898
Bornean ground-cuckoo,50898
CACNA1C,50898
TTL,50898
energy investments,50898
temporal discounting,50898
computerized CBT,50898
Lodeve,50898
triazolam,50898
Chevalley group,50898
Creep,50898
laminopathies,50898
One unit,50898
pegylated interferon alfa-2a,50898
MDEA,50898
Extravasation,50898
Adinazolam,50898
conjugated vaccines,50898
4EBP1,50898
PDK1,50898
Glossa ordinaria,50898
TVI,50898
core memory,50898
sourceforge,50898
Near-infrared spectroscopy,50898
Chephren,50898
ecoregion,50898
PSBS,50898
lymphatic tissue,50898
Turkish language,50898
Independent variable,50898
HAQL,50898
Northwestern Europe,50898
saccharopine,50898
krill,50898
kinetic product,50898
environmental organization,50898
switchgrass,50898
Forelimb,50898
"Fremont, CA",50898
NFE2L3,50898
MOS2,50898
EcoTalk,50898
dust reduction,50898
Halodule uninervis,50898
Jugular vein,50898
Kalnik,50898
Harm reduction,50898
RHL,50898
eucalyptus,50898
bivalve shell,50898
tegmen,50898
pentalene,50898
oral pathology,50898
family solidarity,50898
NS4B,50898
lithified,50898
Becton Dickinson,50898
Continental collision,50898
angrite,50898
anti-vaccination,50898
schizoaffective,50898
drag coefficient,50898
cross-covariance,50898
database 2,50898
patch recording,50898
Rheum palmatum,50898
MoS2,50898
mesohyl,50898
ECDC,50898
TTV,50898
baraki,50898
ADAMTS1,50898
"Wilson, R.",50898
dual nationality,50898
Coriolis coupling,50898
Cartesian plane,50898
GPG,50898
ALPI,50898
MPP,50898
thrombocytopathy,50898
obstruction theory,50898
MNF,50898
Structured interview,50898
amylopectin,50898
joint manipulation,50898
Vilnius,50898
spiking neuron,50898
rocket,50898
Renal ectopia,50898
transfusion medicine,50898
Mysida,50898
uromodulin,50898
Utricularia vulgaris,50898
la question,50898
Factor X,50898
Scaphiophryninae,50898
Tetrazolium,50898
ubisemiquinone,50898
Flucloxacillin,50898
red-listed,50898
viral transduction,50898
ALO,50898
3-connected,50898
BDT,50898
ADAMTSL4,50898
Thermoplasma acidophilum,50898
Bangalore,50898
Perfectionism,50898
Ashkenazi Jews,50898
horsts,50898
TETRA,50898
medical retina,50898
Moroccan people,50898
load transfer,50898
Bisphosphonate,50898
Plant DNA C-values database,50898
Transient synovitis,50898
Broadhaven Bay,50898
personal affairs,50898
response dynamics,50898
UKIRT,50898
scattering channel,50898
Leonid Brezhnev,50898
genomic islands,50898
boron trichloride,50898
Aracaju,50898
Gibbsite,50898
climate forcings,50898
PMK,50898
hyperbolic trajectories,50898
semelparous reproduction,50898
CDC6,50898
transcendental logic,50898
THEMIS,50898
Stored images,50898
warm.,50898
Zannichellia palustris,50898
doxa,50898
ICRA,50898
allosteric signaling,50898
Punctata,50898
nicotine gum,50898
Bornean peacock-pheasant,50898
SPRY1,50898
stochastic matrix,50898
CDC7,50898
fluctuation spectrum,50898
co-pay,50898
Booted Eagle,50898
Ganga,50898
Arthopyreniaceae,50898
magnetic vortices,50898
Mykerinos,50898
Psychoanalysis,50898
Edge City,50898
Laminaria saccharina,50898
stress hyperglycemia,50898
gastro-esophageal junction,50898
E05A,50898
SIDS,50898
rechargeable battery,50898
Tile drainage,50898
bed size,50898
User experience,50898
Aix-en-Provence,50898
STRS,50898
critical care medicine,50898
ALG6,50898
GHRHR,50898
atomic mass number,50898
para-methoxyamphetamine,50898
descriptional complexity,50898
roundworms,50898
BDD,50898
lateral collateral ligament,50898
acetalisation,50898
anaplasia,50898
Plast,50898
Doushantuo Formation,50898
banana bread,50898
air kerma,50898
Riga,50898
Schokland,50898
Gelatinase,50898
dysphasia,50898
iodate,50898
Forestry Commission,50898
Familial aggregation,50898
alopecia totalis,50898
Gd3+,50898
Bodegraven,50898
proletarian,50898
mass-luminosity relation,50898
Hsd17b10,50898
Ebro Valley,50898
iliacus,50898
rectal pain,50898
cauda equina,50898
Directed differentiation,50898
proto-planetary disk,50898
KCNA5,50898
epsC,50898
NGC 4414,50898
ADH5,50898
BCl3,50898
BMRs,50898
glacial landforms,50898
Intercropping,50898
Jef Geeraerts,50898
interatrial septum,50898
XYL,50898
serially correlated,50898
epithelial root sheath,50898
recursively enumerable,50898
avascular osteonecrosis,50898
GRG,50898
KCNJ2,50898
cable tester,50898
Mecca,50898
IGHMBP2,50898
flunitrazepam,50898
quinazoline,50898
Struvite,50898
TtT,50898
Hanseatic,50898
soft-tissue melanoma,50898
Indian summer,50898
chronic lymphoid leukemia,50898
stellar magnetic field,50898
soluble fms-like tyrosine kinase-1,50898
rTPJ,50898
MSYs,50898
SABA,50898
Emmonsia,50898
fruit bodies,50898
ABCP,50898
Partial hospitalization,50898
inhibitory peptide,50898
video system,50898
ASLR,50898
glycogenesis,50898
lateral orbitofrontal cortex,50898
Glutaredoxin,50898
EGEE,50898
oral medicine,50898
Humber estuary,50898
Right ventricular hypertrophy,50898
chemotaxis assay,50898
discretionary policy,50898
paradoxa paradoxa,50898
Methanothermobacter,50898
Appendicectomy,50898
BPM,50898
noun class,50898
RING domain,50898
NAH,50898
Minimal Supersymmetric Standard model,50898
First Consul,50898
Schofield equation,50898
NFHS,50898
Field Programmable Gate Array,50898
EVER1,50898
SBDS,50898
Syrian refugees,50898
Graphium,50898
Cromakalim,50898
chemosynthetic,50898
UDF,50898
surfactant protein D,50898
Castilian,50898
Garfield,50898
The confusion,50898
Observability,50898
heparin sulfate,50898
EphB,50898
angiotensin-converting enzyme (ACE) inhibitor,50898
SHAI,50898
Capella,50898
hypernovae,50898
long-exposure photography,50898
quinuclidine,50898
IUD,50898
DNM3,50898
external limiting membrane,50898
T-waves,50898
Pentosan polysulfate,50898
sponge cake,50898
coaxial cable,50898
UPF1,50898
choanocyte,50898
leak channel,50898
Coverage data,50898
MVV,50898
needle exchange,50898
succinylcholine,50898
BM4,50898
Manipulative therapy,50898
electron localization function,50898
SH2B1,50898
P55,50898
polyschides,50898
CEBPB,50898
microscopic hematuria,50898
ulnar collateral ligament,50898
Sierra Madre,50898
optical disc,50898
moduli stack,50898
floor function,50898
cell-penetrating peptide,50898
male condoms,50898
mazindol,50898
Lyman limit,50898
ProMed-mail,50898
inverse limit,50898
preSMA,50898
gemini,50898
Kontron,50898
q-analog,50898
General Electric,50898
Amblyseius swirskii,50898
integron,50898
Dipstick,50898
exonic splicing enhancer,50898
pelvic kidney,50898
statistical computing,50898
total motile sperm count,50898
Azoarcus,50898
ADOX,50898
Tricyclic antidepressant,50898
histidine protein kinase,50898
mini-Neptunes,50898
menes,50898
Balmer series,50898
Twist1,50898
male accessory gland infection,50898
Kas,50898
immuno-suppression,50898
transtentorial herniation,50898
Hyperkalaemia,50898
TGFBR3,50898
dicyclopentadiene,50898
LOV domain,50898
VAMP5,50898
thermoremanent magnetization,50898
Myl9,50898
rectus sheath,50898
hypohidrosis,50898
Watertown,50898
signifiant,50898
Lie detection,50898
RNA sequencing,50898
Cxcl10,50898
biological interaction,50898
stellar oscillation,50898
Computerized CBT,50898
Old Norse,50898
Very High Resolution Radiometer,50898
lung squamous cell carcinoma,50898
hypothalamo-hypophyseal system,50898
high-low,50898
iopamidol,50898
Amplified spontaneous emission,50898
Bogaert,50898
ureide,50898
Cryptic species,50898
serum response factor,50898
game engine,50898
acetabulum,50898
curved space,50898
ADH4,50898
CAV3,50898
Seagrass,50898
CLCN7,50898
ocular motility disorders,50898
isoamylase,50898
Zhujiang,50898
sex characteristics,50898
Schizotypy,50898
UWB,50898
Cevennes,50898
FNV,50898
BC1,50898
Tyrosol,50898
caspase-6,50898
Breast development,50898
EVER2,50898
Atropine,50898
MPS VI,50898
M5-brane,50898
Ploidy,50898
Hieraaetus pennatus,50898
eubacterium,50898
Social insurance,50898
data logger,50898
primary succession,50898
adhesion barrier,50898
Visual evoked potential,50898
P34,50898
marine mammal,50898
Vascular endothelial growth factor (VEGF),50898
desiderata,50898
Branchburg,50898
Couette flow,50898
T9,50898
PARP-1,50898
Cirolanidae,50898
fluorescence recovery protein,50898
Quantitative trait loci,50898
nonsense mediated decay,50898
aerosil,50898
In ovo,50898
Downsizing,50898
4-fluoroamphetamine,50898
PIO,50898
emission phase,50898
anti-aromatic,50898
hypergeometric function,50898
sister taxa,50898
Square Kilometer Array,50898
Joint effusion,50898
gall-bladder,50898
Sergipe,50898
preadolescence,50898
Ion Torrent,50898
PAK2,50898
Zygosity,50898
circumstellar disc,50898
fast rotator,50898
nursing process,50898
magnitude limit,50898
butanols,50898
parabens,50898
solar flares,50898
"1,5-hexadiene",50898
C-H functionalization,50898
spondylolysis,50898
angiotensin receptor blocker,50898
hold-ups,50898
superficial thrombophlebitis,50898
scupper,50898
Postural hypotension,50898
BC Cancer Agency,50898
Sarnat staging,50898
14X,50898
American literature,50898
GPx2,50898
Cdk4,50898
NOTCH3,50898
Gene expression patterns,50898
Fusion protein,50898
High anxiety,50898
submodalities,50898
Lieve Joris,50898
ALDH5A1,50898
Dlg3,50898
Clara Cell,50898
non-stoichiometric,50898
DNMT,50898
trijet,50898
SCN4B,50898
selectivity filter,50898
middle ear infection,50898
geoR,50898
Nuclear Factor-kappa B,50898
seed bank,50898
aphotic zone,50898
multiple minima,50898
scleritis,50898
Royal Museum,50898
RACF,50898
Gutenberg-Richter,50898
enteric-coated,50898
6502,50898
NGC 1275,50898
Chromosome aberration,50898
oscules,50898
verumontanum,50898
TQS,50898
proteins C,50898
ADH6,50898
saracatinib,50898
Humber,50898
tidal spin-down,50898
arachidonate,50898
Jasmonate,50898
handshaking,50898
ITPR2,50898
clazakizumab,50898
thrombophlebitis,50898
Antwerpen,50898
MRIa,50898
cre recombinase,50898
V10,50898
cyclopentane,50898
A2M,50898
MUGA,50898
U/Th,50898
VAMP8,50898
Bouin,50898
Flanders Marine Institute,50898
Pygocephalomorpha,50898
BLIPS,50898
ocular micrometer,50898
electrodiagnosis,50898
Pou5f1,50898
tymbal,50898
lull,50898
corneal endothelium,50898
Gas hydrates,50898
IMH,50898
Social Security System,50898
fuzzballs,50898
iron-sulphur cluster,50898
conidiomata,50898
The invitation,50898
LUMOs,50898
Marsh Harrier,50898
Tuxpan,50898
north-eastern Brazil,50898
HR2,50898
vancomycin-resistant Enterococcus faecium,50898
17OHP,50898
hydrophobic collapse,50898
Religious denomination,50898
Sustainable Development Goal,50898
SMPI,50898
The Con,50898
"3-amino-1,2,4-triazole",50898
carbonyl sulfide,50898
Cheops,50898
Pomatoceros triqueter,50898
Frantz Fanon,50898
quantum cryptography,50898
BrCl,50898
ChIP-chip,50898
ENL,50898
Microsatellite instability,50898
dinitro,50898
ixekizumab,50898
Chiapas,50898
XYY,50898
NSL,50898
hard choices,50898
brightest cluster galaxy,50898
iSYS,50898
path-integral formulation,50898
Molecular phylogenetics,50898
IGFBP2,50898
Molecular genetics,50898
vaccine-induced seropositivity,50898
Bradford assay,50898
lw,50898
alkaline hydrolysis,50898
horticulture,50898
NHN,50898
hibiscus,50898
convergent evolution,50898
ADH1A,50898
twin boundary,50898
base 10,50898
Anchorage,50898
infanticide,50898
conjugate variables,50898
Left heart,50898
ACTH receptor,50898
Extraocular muscles,50898
chromosome pairing,50898
justifier,50898
ADAMTS2,50898
Biotope,50898
BJD,50898
AKAP9,50898
midline shift,50898
Gsk3b,50898
lysyl oxidase,50898
rhombus,50898
Spinal fusion,50898
Hypocalcaemia,50898
cromakalim,50898
chemical glycosylation,50898
FPGA,50898
Aplysina,50898
open assessment,50898
splicing regulatory element,50898
chalcophiles,50898
internal jugular veins,50898
ODAs,50898
monochromator,50898
cgt,50898
X Persei,50898
HSD17B10,50898
L/S ratio,50898
normal number,50898
mental foramen,50898
Aluminium,50898
Navarro-Frenk-White profile,50898
distal arthrogryposis,50898
RHEB,50898
pes cavus,50898
vinexin,50898
indirect defense,50898
G40,50898
overdrive,50898
vinyl chloride,50898
internal organ,50898
Advantageous,50898
pnictide,50898
Nimes,50898
harbour porpoise,50898
backcrossing,50898
club cell,50898
pancreaticojejunostomy,50898
soldering,50898
trickles,50898
The transporter,50898
Acanthamoeba polyphaga,50898
2OG,50898
Brazilian Shield,50898
Acox1,50898
Buea,50898
Cdk2,50898
Lyngbya,50898
Mn-SOD,50898
Baltic States,50898
S8,50898
supercomputer,50898
D-lactate dehydrogenase,50898
CX,50898
asteraceous,50898
rectovaginal fistula,50898
NPR1,50898
ADH1B,50898
Food web,50898
sigma nu,50898
radial glial cells,50898
rhubarb,50898
bacterial endocarditis,50898
Global Positioning System (GPS),50898
XY gonadal dysgenesis,50898
alopecia areata,50898
Discriminant validity,50898
carbamoyl phosphate,50898
proton-pump inhibitor,50898
WFS1,50898
Corynephorus,50898
protocol I,50898
chemogram,50898
NAL,50898
meme,50898
CRYBB2,50898
convulsion,50898
circulating tumor DNA,50898
strategic therapy,50898
political correctness,50898
glucogenic,50898
Reductant,50898
arginine kinase,50898
VLIZ,50898
Circus aeruginosus,50898
Sirius B,50898
swamp forest,50898
Einstein-Hilbert,50898
zipping,50898
Mwanza Region,50898
Alcyonium digitatum,50898
35 mm film,50898
regular insulin,50898
tetraethylene glycol,50898
nuclear space,50898
lungfish,50898
ADAM15,50898
Red Rectangle nebula,50898
CNS depression,50898
care package,50898
myelinization,50898
TOX2,50898
SMUG,50898
Ondina,50898
Lewis base,50898
operant behavior,50898
CUPIDO,50898
haemophilia B,50898
CRYAB,50898
V16,50898
Canberra,50898
Alexandrium tamarense,50898
Agen,50898
butylparaben,50898
sarilumab,50898
Hannover,50898
NANTEN,50898
millitesla,50898
HSPG2,50898
LOXL1,50898
acerola,50898
Arthus reaction,50898
spin coated,50898
Laird,50898
rhizome,50898
polymegethism,50898
CNN2,50898
Pipette,50898
Golden Lane,50898
IL-17a,50898
KREMEN1,50898
David van Reybrouck,50898
Subramaniula,50898
TLV,50898
stx2,50898
phycobilisome,50898
protocol II,50898
dispersity,50898
European plate,50898
gamma-valerolactone,50898
piperaquine,50898
Dnmt3b,50898
Sichuan Province,50898
CD53,50898
interferon alpha-2b,50898
flawlessly,50898
The zenith angle,50898
IGFBP5,50898
haptophyte,50898
The siblings,50898
safety factor,50898
linear free energy relationship,50898
10 CC,50898
sympodial,50898
megaripple,50898
general surgeon,50898
GALNT1,50898
magnetotelluric,50898
Schipluiden,50898
phase delay,50898
fesoterodine,50898
ADH1C,50898
serotonergic tone,50898
internal obturator muscle,50898
E170,50898
WCX,50898
thalamic reticular nucleus,50898
thiamin,50898
NOTCH2,50898
coprolites,50898
thenoyltrifluoroacetone,50898
clacks,50898
Leu-7,50898
el presente,50898
loxl1,50898
ERGIC,50898
CRYBA4,50898
ergotamine,50898
Otx1,50898
bone-specific alkaline phosphatase,50898
Pleiades,50898
E8,50898
tyrosol,50898
photolytically,50898
Idrisi,50898
gamma-lactone,50898
gonorrhea infection,50898
Hanjiang River,50898
S15,50898
early autumn,50898
Rebif,50898
HAS1,50898
times modern,50898
Google Glass,50898
plasma cholesterol level,50898
DHE,50898
pinacidil,50898
mud volcano,50898
BESSY,50898
piriformis,50898
LINER,50898
AP2,50898
Congo River,50898
benzoxazines,50898
Iron Gates,50898
myco,50898
PTDI,50898
Whole-body MRI,50898
polysemy,50898
Marsden,50898
decellularized,50898
Cornea,50898
OBSL1,50898
mucinous adenocarcinoma,50898
linalool,50898
CartoDB,50898
abnormal number,50898
Hepatica,50898
chelatase,50898
boost region,50898
replication slippage,50898
Perfusion MRI,50898
aluminum hydroxide,50898
tidal flat,50898
Miravirsen,50898
Espanola,50898
viral species,50898
heavy water,50898
ADH7,50898
vertisol,50898
DNA barcode,50898
Open source,50898
lingual foramen,50898
LTBP3,50898
guaiacol,50898
Pyk2,50898
cdc25,50898
running start,50898
SIAE,50898
BCL11A,50898
stress incontinence,50898
KdVS,50898
Glucose meter,50898
D-L,50898
Polymerase Chain Reaction,50898
sapropel,50898
Perseus Cluster,50898
branched chain amino acids,50898
basin inversion,50898
type II alveolar cells,50898
H-i,50898
ArF,50898
ITGB2,50898
Fn14,50898
HIF1a,50898
renal ultrasound,50898
bone transplantation,50898
gravitational-wave detector,50898
sulforaphane,50898
shape memory,50898
1-butanol,50898
glutaredoxin,50898
Geneve,50898
Terminal half-life,50898
Type III kerogen,50898
S17,50898
haemorrhagic fever,50898
FOXC2,50898
extra virgin olive oil,50898
Helgoland,50898
siNIK,50898
GZa,50898
sirukumab,50898
Dishevelled,50898
schedule caste,50898
dermatopathia pigmentosa reticularis,50898
bound 2,50898
Steyr,50898
PMEE,50898
Sylvester matrix,50898
Cavitation,50898
rhombi,50898
dinucleotide repeats,50898
Crystallin,50898
multi-organ failure,50898
FLEX,50898
nucleus reticularis lateralis,50898
anti-ganglioside antibodies,50898
PRCA,50898
late autumn,50898
phosphatidyl inositol,50898
irregular galaxy,50898
particle accelerator,50898
dyskeratosis congenita,50898
MAP3K7,50898
Megaviridae,50898
palatogenesis,50898
Ccl3,50898
geranylgeranyl,50898
nest box,50898
K17,50898
reconstruction filter,50898
ERMS,50898
Parp1,50898
miR-34a,50898
carotid stenosis,50898
alternative medical treatment,50898
chi square,50898
TNI,50898
ocriplasmin,50898
BASH,50898
latex beads,50898
epithelial cadherin,50898
Hindcast,50898
Silymarin,50898
Tsc2,50898
Stuart,50898
Puncak,50898
Leishmania braziliensis,50898
la terre,50898
Uropappus lindleyi,50898
Hypnotherapy,50898
peptic ulcers,50898
LHCB,50898
hypothenar eminence,50898
twistor space,50898
Org 28611,50898
hazelnut oil,50898
dimethyl maleate,50898
pronuclei,50898
Delrin,50898
shear wave,50898
parental brain,50898
sagittal sinus thrombosis,50898
Illyrian,50898
UGC,50898
Transmetalation,50898
W91,50898
Crimean peninsula,50898
ezetimibe/simvastatin,50898
beta spectrum,50898
Arch Gen Psychiatry,50898
Nup62,50898
Butare,50898
Leishmania mexicana,50898
POU5F1,50898
lepromatous leprosy,50898
CAV.,50898
middle temporal gyri,50898
herd immunity,50898
ELANA,50898
BSD,50898
HSP40,50898
Reaction rate,50898
alpha helix,50898
key video,50898
BL Lac object,50898
chrysosporium,50898
Risk ratio,50898
"2,4,6-trichlorophenol",50898
GBIF,50898
liver function test,50898
Chyle,50898
AIX,50898
INK4,50898
equilibrium constant,50898
bilaterally symmetrical,50898
free TEMPO,50898
NGC 4696,50898
Megavirus,50898
Miyazaki,50898
poikiloderma,50898
Backcrossing,50898
TiCl4,50898
Proton pump inhibitor,50898
chemical mimicry,50898
DCLK1,50898
Sartre,50898
XRCC1,50898
Catch-up growth,50898
Clonorchis sinensis,50898
Nisoldipine,50898
baricitinib,50898
liquid biopsy,50898
PFKM,50898
Commerzbank,50898
chocolate bar,50898
chemical vapor deposition,50898
toxicogenomic,50898
The gist,50898
thalli,50898
VULCAN,50898
gated communities,50898
human pancreatic lipase,50898
chemical vapor transport,50898
zodiacal dust,50898
Krippendorff,50898
Dermanyssus gallinae,50898
binary opposition,50898
sea turtle,50898
prope,50898
exponential stability,50898
underarm,50898
ideal observer,50898
antiarrhythmic agents,50898
malignant infantile osteopetrosis,50898
MOVE,50898
innominate bones,50898
anilino,50898
homotopy equivalent,50898
Horssen,50898
fascism,50898
Neoplatonic,50898
time series analyses,50898
Poseidon,50898
security policy,50898
SNNs,50898
external iliac vein,50898
habitability,50898
Vencer,50898
perfectly competitive,50898
Advisory Opinion,50898
isosceles,50898
John Locke,50898
autistic spectrum disorder,50898
Thaler,50898
Darton,50898
medical statistics,50898
heart palpitations,50898
"1,3-dioxane",50898
CE marking,50898
Helge,50898
Kabarole,50898
objective structured clinical examination,50898
IgE receptor,50898
Decision Support System,50898
molecular formula,50898
Assamese,50898
neuro-ophthalmology,50898
Progressive Supranuclear Palsy,50898
battle ground,50898
thermal oxidation,50898
Clifford,50898
buttress,50898
Annales,50898
prokaryote,50898
gliotransmitter,50898
Draga,50898
convenience food,50898
dynamical heterogeneity,50898
polyatomic molecule,50898
Courtois,50898
physical geography,50898
Menes,50898
no-go theorem,50898
Royal Irish Academy,50898
differenced,50898
Allostasis,50898
SKR,50898
Coop,50898
Claude Bernard,50898
reproductive tract infection,50898
British sovereign,50898
holomorphic curve,50898
lophogastrid,50898
Anaximander,50898
DCME,50898
BOLD fMRI,50898
implantable cardioverter defibrillators,50898
compact group,50898
phase-type distributed,50898
integrated assessment models,50898
Duffy antigen,50898
Cancer Stem Cells,50898
bone tumour,50898
Leibniz,50898
family reunion,50898
middle peak,50898
Hypocreales,50898
proportional representation,50898
de Vliert,50898
deja vu,50898
ESOM,50898
Billroth I,50898
Tour de France,50898
Dutch Police,50898
internal combustion engine,50898
contact hypothesis,50898
Bathonian,50898
lognormal distribution,50898
"[3,3]-sigmatropic rearrangement",50898
Stress management,50898
OSV,50898
macro analysis,50898
Thallium,50898
Steinberg,50898
Algol,50898
deflection signal,50898
immunotoxin,50898
Desaix,50898
cycloplegic,50898
2D materials,50898
AO Cassiopeiae,50898
RHM,50898
Red Square Nebula,50898
miniskirt,50898
Mechernich,50898
VOR,50898
White American,50898
Hannover Medical school,50898
dance/movement,50898
Rafflesiaceae,50898
missing link,50898
2008 economic crisis,50898
candomble,50898
The departure,50898
Hylobates,50898
aqueous species,50898
GABA-T,50898
Analytica,50898
ring junction,50898
Central Nervous System,50898
red mullet,50898
gross motor skill,50898
SNF2,50898
immune-mediated disorder,50898
semipermeable,50898
type-II superconductors,50898
validity theory,50898
passerine,50898
Miscanthus,50898
Tartu,50898
recurrent neural networks,50898
compositional semantics,50898
operant conditioning,50898
hydrogen breath test,50898
cumulative hierarchy,50898
CCTV,50898
Eagle Nebula,50898
squatter,50898
cache,50898
Prescott,50898
Deming,50898
network class,50898
regular expressions,50898
IMI,50898
controlling behaviour,50898
great moderation,62901
Dominican,50898
Simes,50898
critical path initiative,50898
Raoiella indica,50898
open-science,50898
Tauberian theorem,50898
complex vector bundle,50898
Safe Haven,50898
process studies,50898
Essure sterilization,50898
Almeria,50898
transport vesicles,50898
Lymphotoxin beta receptor,50898
Genome Wide Association Studies,50898
braconid,50898
spatially offset Raman spectroscopy,50898
drug cartel,50898
labour regulation,50898
Q-learning,50898
Time domain reflectometry,50898
Family counseling,50898
protein-protein interaction networks,50898
Tribolium castaneum,50898
VENUS,50898
MTBE,50898
Czochralski method,50898
dimorphic fungus,50898
Gorbea,50898
restriction point,50898
Laser Interferometer Gravitational-Wave Observatory,50898
ectopic pancreas,50898
NGC 5253,50898
Prince Bernhard,50898
Houthis,50898
bibliographic database,50898
dimedone,50898
LCOGT,50898
ureters,50898
Millennium Cohort Study,50898
Offin,50898
microfiche,50898
Drentsche Aa,50898
Hendriksen,50898
automated fingerprint identification,50898
gentrified,50898
Nollet,50898
pizzeria,50898
European Union politics,50898
Michael Polanyi,50898
many-one reducible,62983
Ruconest,50898
small Maf,50898
radial immunodiffusion,50898
pervasive computing,50898
neocognitron,50898
gammarids,50898
LXX,62942
Kolmogorov axioms,50898
Palo Alto,50898
gender bias,50898
Jordan curve,50898
parafunctional habit,50898
North Korea,50898
herring gull,50898
stochastic quantization,50898
Harlan,50898
H. sapiens,50898
curcuminoid,50898
Idiom,50898
methaemoglobinaemia,50898
popular construction,50898
UNICEF,50898
feel young,62864
toprope,50898
periodic solution,50898
filter-feeding,50898
hepatic hilum,50898
Knoll,50898
ethyl formate,50898
Cartan subalgebra,50898
apremilast,50898
CHMP2B,50898
St14,50898
lethal yellowing,50898
jet flow,50898
TSG101,50898
phylogenetic nomenclature,50898
E. dispar,50898
vasopressin receptor,50898
gfp,50898
SEC31A,50898
marine realm,50898
FOXO3A,50898
Temporal discounting,50898
Mimivirus,50898
MWC 922,50898
rechargeable batteries,50898
cell-penetrating peptides,50898
Ect2,50898
clear-cell sarcoma,50898
brine lake,50898
Tuberin,50898
Pax6,50898
evo-devo,50898
ibudilast,50898
cyclic voltammogram,50898
virtuous circle,50898
hepatic veins,50898
Information entropy,50898
LETS,50898
community mental health services,50898
RYR,50898
Star Formation,50898
Hyperemesis gravidarum,50898
circumorbital,50898
inferior orbital fissure,50898
mass-balancing,50898
aerodynamics,50898
Wain,50898
gene good,50898
glutaminolysis,50898
MCM-41,50898
pyroclastic fall,50898
centra,50898
long noncoding RNA,50898
TET2,50898
posterior cerebral artery,50898
Phosphoamino acid analysis,50898
ORC1,50898
endymion,50898
lateral geniculate nucleus,50898
secondary somatosensory cortex,50898
tetracaine,50898
bioavailable carbon,50898
Conifer,50898
Glina,50898
acanthamoeba,50898
adinazolam,50898
Dnieper,50898
Blastomyces,50898
zymogens,50898
Fourier transformation,50898
Western Sahara,50898
3G,50898
Pentlandia,50898
Power Doppler,50898
alpha-2 macroglobulin,50898
Kainate,50898
particle characterisation,50898
Unfolding,50898
TIMP-2,50898
Trpm1,50898
tetradecane,50898
Red Square,50898
zona fasciculata,50898
high-protein diet,50898
ER81,50898
CUL7,50898
lithium chloride,50898
Thauera,50898
GPI-anchor,50898
washing machine,50898
relaxometry,50898
neuromyopathy,50898
RP1,50898
Open lung ventilation,50898
Sumpter,50898
SS-A,50898
hip flexors,50898
Arg29,50898
maltose binding protein,50898
Thai-Malay Peninsula,50898
reciprocal translocation,50898
carnitine palmitoyl transferase,50898
Saracatinib,50898
hemophiliac,50898
Gacko,50898
detached retina,50898
ecological theory,50898
TOPBP1,50898
Bernoulli trial,50898
protein losing enteropathy,50898
unionids,50898
Dlx5,50898
lymphotactin,50898
microspectrophotometry,50898
Picornavirus,50898
hydrodesulfurization,50898
atrioventricular valve,50898
Ezetimibe/simvastatin,50898
mud flow,50898
hemoglobin A1C,50898
window properties,50898
species ii,50898
pseudotype,50898
dicoumarol,50898
Piperaquine,50898
interoception,50898
acetolysis,50898
Don river,50898
group delay,50898
Cathepsin D,50898
hemothorax,50898
SS-B,50898
Red Rectangle Nebula,50898
Phox,50898
+44,50898
Rossini,50898
Strategus aloeus,50898
PPS3,50898
phosphoglycerate dehydrogenase,50898
wave transit,50898
Adrenomedullin,50898
fluellite,50898
Ochotona,50898
TRA,50898
Weber thesis,50898
Karlovac,50898
Wixom,50898
Eulerian simulations,50898
NGFI-A,50898
St Abbs,50898
UltraVision,50898
sonification,50898
Contrast-to-noise ratio,50898
osteomalacia,50898
masked depression,50898
dose response curve,50898
Sintered,50898
sorbate,50898
chemotactic factor,50898
Tgf beta,50898
SIRT4,50898
electrophoresed,50898
isodisomy,50898
KDR/Flk-1,50898
mucinous cystadenoma,50898
grand canonical ensemble,50898
Harderian gland,50898
pyramidalized,50898
Dendrodoa,50898
Orthocladiinae,50898
Todd,50898
Illegal logging,50898
Baranja,50898
omega 3 fatty acids,50898
Cafeteria roenbergensis,50898
prilocaine,50898
slime mold,50898
transform boundary,50898
Ferumoxytol,50898
intermediate-acting insulin,50898
Total resistance,50898
eluviation,50898
Melolonthidae,50898
pelvic girdle,50898
Ly49,50898
separation event,50898
Kazan,50898
AR-R17779,50898
Saquinavir,50898
rimming,50898
Isochrone,50898
kinetic pattern,50898
mandibular incisive canal,50898
Clathrina coriacea,50898
neuroblast,50898
Risk-based testing,50898
Steno,50898
lithic clasts,50898
superantigen,50898
tropical peat,50898
refugee camp,50898
clpP,50898
NEIL2,50898
SAMT,50898
Dictyostelium discoideum,50898
nutrigenetic,50898
entactin,50898
IUBMB,50898
PDGFB,50898
Organic Lake,50898
amebiasis,50898
endotype,50898
Cladonia,50898
self-tolerance,50898
negative environmental factors,50898
Wake Forest,50898
FKBP6,50898
Dynastinae,50898
Chlorophenol,50898
MDC1,50898
strombolian,50898
Torrens,50898
Erlangen,50898
Dipnoi,50898
HIV1,50898
Oxycodone,50898
end-effector,50898
male-assigned,50898
Betic corridor,50898
Cbfa1,50898
Csf2rb,50898
phycodnavirus,50898
VK,50898
early ART,50898
Hemophiliac,50898
WHHL,50898
Soldering,50898
Wilcoxon rank-sum test,50898
Cladina,50898
Deltaproteobacteria,50898
inactivated poliovirus,50898
cryoglobulinemia,50898
Phentolamine,50898
ilia,50898
aviary,50898
glucose transporter type 1,50898
la clase,50898
Upper Devonian,50898
calcium regulation,50898
intralaminar nuclei,50898
HKD,50898
Alsace,50898
palustrine,50898
articaine,50898
palaeogeography,50898
oestrus,50898
salt tectonics,50898
FOXA2,50898
dIgA,50898
hypersaline lake,50898
Sodium stibogluconate,50898
reduced trace,50898
IL 1,50898
21-hydroxylase deficiency,50898
RGS14,50898
clave,50898
system profiling,50898
ORC4,50898
TNFRSF6B,50898
Small number,50898
proceso,50898
capsulotomy,50898
Chin,50898
Cd53,50898
valorisation,50898
Timp2,50898
Micropsectra,50898
rilmenidine,50898
"1,6-methano[10]annulene",50898
ocean basin,50898
megacities,50898
CLDN14,50898
sleep problem,50898
TREM2,50898
DSMZ,50898
influenza (FLU),50898
miR-210,50898
iron clusters,50898
albumen,50898
Phaenopsectra,50898
HTR,50898
l-dopa,50898
secretory protein,50898
neuritis,50898
MMTV,50898
CASR,50898
melena,50898
second-generation antipsychotics,50898
solar fuel,50898
TYROBP,50898
Laramide,50898
GABA transaminase,50898
Slc25a13,50898
Group B streptococci,50898
UMOD,50898
skin tag,50898
short wave,50898
Southeastern Europe,50898
CDT1,50898
cardiac biomarkers,50898
C. introflexus,50898
EPR properties,50898
Sierra Madre Oriental,50898
Rhizomucor,50898
Memory B cell,50898
Pineoblastoma,50898
Purkinje fiber,50898
dominant logic,50898
Billroth II,50898
biconnected,50898
introduced taxa,50898
Antiepileptic,50898
Giraffe,50898
Wal-Mart,50898
elastic fiber,50898
nuclear lamins,50898
Low German,50898
diphenylcyclopropenone,50898
COP21,50898
polysilane,50898
European parliamentary election,50898
orbital cavity,50898
staling,50898
T-cell receptor excision circles,50898
Embarrassment,50898
creaming,50898
glycerolipid,50898
Event study,50898
online problem,50898
Headspace,50898
Tobit,50898
weak gauge bosons,50898
debt consolidation,50898
seminorm,50898
Skin prick tests,50898
2006 national election,50898
personal injury protection,50898
optical motion tracking,50898
tectonic inversion,50898
matrix inverse,50898
measurable set,50898
Post-translational modification,50898
characteristica universalis,50898
compact disk,50898
Ceratophyllum demersum,50898
turbidity current,50898
foundationalist,50898
North American Free Trade Association,50898
group affective tone,50898
IDDD,50898
desquamating,50898
deep-sea fan,50898
perceptron,50898
Alegranza,50898
dispersed knowledge,50898
Coxiella,50898
cyanotic,50898
Nair,50898
Gordon model,50898
Halvorsen,50898
neuromuscular blocking agent,50898
Pseudopontiinae,50898
SMART criteria,50898
nativism,50898
projective curve,50898
polyethylenimine,50898
A 96,50898
Steneotarsonemus,50898
Dietary fiber,50898
drone warfare,50898
metallo-beta-lactamase,50898
Defensins,50898
microbial life forms,50898
prehistory,50898
Lorenz-Mie,50898
titanium diboride,50898
Africa Centre,50898
cognitive map,50898
macroecological,50898
brand loyalty,50898
12-crown-4,50898
Sheffield,50898
evant,50898
waterfall,50898
death pose,50898
Learning theory,50898
spondylarthropathies,50898
Feni,50898
Karbi Anglong,50898
Anti-Retroviral Therapy,50898
unlimited liability,50898
phonological development,50898
Androlaelaps casalis,50898
Vladimir Lenin,50898
paraboloidal coordinates,50898
homeotic transformations,50898
aziridinium,50898
Venturi,50898
5-flucytosine,50898
superficial vessels,50898
capillary system,50898
Russian economy,50898
Chittagong Medical College Hospital,50898
Carpococcyx,50898
Traveling Salesman Problem,50898
parasitic wasp,50898
physical restraint,50898
shaving foam,50898
M16,50898
nodal membrane,50898
Clavicipitaceae,50898
Starling forces,50898
Opisthorchis viverrini,50898
BASF,50898
One pattern,50898
Springtail,50898
"Pereira, Colombia",50898
clinical cardiology,50898
Larus argentatus,50898
A pass,50898
1-heptanol,50898
spatial competition,50898
cotangent,50898
Body Dysmorphic Disorder,50898
Jagersfontein,50898
stepparents,50898
Equus,50898
Bufo marinus,50898
chlorosilanes,50898
Dutch speaking region,50898
lattice gauge theory,50898
Segura,50898
DNA transposon,50898
straight leg raise,50898
uncharted waters,50898
MYH3,50898
Chiriqui,50898
ISG15,50898
Tangram,50898
silicon detector,50898
poset,50898
Rothamsted,50898
LAOS,50898
lamellar body count,50898
WR21a,50898
canonical class,50898
Narcissistic Personality Inventory,50898
Ajellomycetaceae,50898
biomedical science,50898
teletext,50898
Be/X-ray binary,50898
Wrinch,50898
Herring Gulls,50898
Hidden Markov Model,50898
option valuation,50898
forensic toxicology,50898
Eurytomidae,50898
Embedded Systems,50898
tile drains,50898
troikas,50898
Schur product,50898
tax fraud,50898
cyclin-CDK,50898
apparent horizon,50898
alpha-L-iduronidase,50898
reeducation,50898
lexical stress,50898
photoresist,50898
Tolochenaz,50898
counterterrorism,50898
Polonaise,50898
Urban agriculture,50898
interpersonal tie,50898
Abrikosov vortex,50898
dynamic decision making,50898
hair dyeing,50898
cross-linked enzyme aggregate,50898
mediatisation,50898
x-ray tube,50898
emission-line star,50898
Auvergnat,50898
rest-mass,50898
Baarn,50898
tungara frog,50898
bituminous coal,50898
scrubland,50898
excessive number,50898
Brandon,50898
magnetization density,50898
Zuiderzee,50898
Upolu,50898
septoplasty,50898
paraprofessional,50898
blackbodies,50898
differential calculus,50898
convergence acceleration,50898
Retrovir,50898
Jogjakarta,50898
crop diversification,50898
intelligent user interfaces,50898
conditional expectation,50898
charge quantization,50898
A priori knowledge,50898
The conversation,50898
ENGOs,50898
quantum dot laser,50898
crenulation,50898
Novgorod,50898
group delays,50898
Eden,50898
Slc25a15,50898
Tbr2,50898
OGG1,50898
W8,50898
IL 8,50898
recombinant Factor VIIa,50898
Methanosarcina barkeri,50898
peritoneal cancer,50898
Gene silencing,50898
Oct-2,50898
septae,50898
Eurasian margin,50898
virophage,50898
IRF7,50898
inferior recti,50898
foscarnet,50898
stereoisomerism,50898
Nintedanib,50898
Western Alps,50898
Antipsychotic drug,50898
Pseudopontia mabira,50898
GNT,50898
HAS3,50898
oncolytic virus,50898
ABC group,50898
kPA,50898
Zoological Journal,50898
PLA2G4A,50898
Pseudopontia gola,50898
"3,3'-diaminobenzidine",50898
remineralising,50898
Eur Heart J,50898
chylomicrons,50898
numerical instability,50898
lateral rectus,50898
muscularis externa,50898
express Fc,50898
vascular endothelial growth factor C,50898
Bupivacaine,50898
blood oxygen saturation,50898
Multipotent,50898
kyrs,50898
autolyzed,50898
protein catabolism,50898
Phylogenetically,50898
IB4,50898
ETS1,50898
superior oblique,50898
non-proteinogenic amino acids,50898
zambezi,50898
indene,50898
PTPRJ,50898
Bayer Schering Pharma,50898
autolytic,50898
ecosystem engineer,50898
Innate immunity,50898
Van Beek,50898
Athina,50898
A549 cell,50898
Ortho-McNeil,50898
Bos taurus,50898
snow-line,50898
turbiditic,50898
Santaris Pharma,50898
SR141716,50898
6q,50898
b-catenin,50898
Langenbach,50898
tympani,50898
Zaat,50898
Progeria,50898
Chromosome 20,50898
Erk1/2,50898
intertropical convergence zone (ITCZ),50898
Open access,50898
N-V center,50898
main memory,50898
Arthritis Research UK,50898
CCHR,50898
Otolaryngology,50898
Carbonic anhydrase IX,50898
organozinc,50898
C ring,50898
positivistic,50898
behavioral contagion,50898
Sirius A,50898
Fano,50898
theta function,50898
"3,3-dimethylpentane",50898
Melles,50898
populist party,50898
prescription drug,50898
unit load,50898
hepatoprotective,50898
automobile insurance,50898
star born,50898
informal economy,50898
amplexus,50898
separate ways,50898
Cypripedium,50898
recombinant EPO,50898
coarse moduli spaces,50898
Voluntary Partnership Agreement,50898
Benzene,50898
rare earths,50898
priories,50898
Fregean,50898
This freedom,50898
Ranville,50898
amelogenesis imperfecta,50898
cyclitol,50898
TiB2,50898
pulvinar nuclei,50898
Kernel estimation,50898
quantum key distribution,50898
Saturated fatty acids,50898
school uniform,50898
Sir Harold Jeffreys,50898
location manager,50898
mass shell,50898
unlithified,50898
Nephelometer,50898
Galle Harbour,50898
May Day,50898
Al-Wahda,50898
Mpc-1,50898
BONN,50898
Utstein Style,50898
Reliability analysis,50898
environmental refugee,50898
red blood cell aggregation,50898
pleuropneumonia,50898
American English,50898
disease eradication,50898
silyloxy,50898
MBQ,50898
brewing company,50898
esophageal pH monitoring,50898
situs solitus,50898
Cardwell,50898
EC number,50898
Dutch Healthcare System,50898
computed tomograph,50898
Hansard,50898
cotangent bundle,50898
mediator variable,50898
isothermal process,50898
Atos,50898
Frege,50898
optical field,50898
carnitine biosynthesis,50898
A-scan,50898
heatmap,50898
long-term nonprogressors,50898
Lichens,50898
Lesniewski,50898
cardiac valvular disease,50898
dihydropyrimidine dehydrogenase deficiency,50898
Self-Construal,50898
holonomy,50898
Elodea canadensis,50898
Glyptapanteles,50898
shawl,50898
mathematical practice,50898
Chironomids,50898
Lyman alpha,50898
photomorphogenesis,50898
Lasswell,50898
feedforward neural networks,50898
Yamaguchi,50898
centrist,50898
dualist,50898
axiomatic method,50898
Grosseto,50898
rapeseed,50898
dihydrostreptomycin,50898
Horseradish peroxidase,50898
statistical signal processing,50898
Coercion Bill,50898
propagation model,50898
numerical mathematics,50898
Project Implicit,50898
Jasper,50898
17q21.31 microdeletion syndrome,50898
acute stress disorder,50898
Rosengren,50898
theatresports,50898
hair gel,50898
blue triangle,50898
evanescent field,50898
post-Keynesian,50898
fermata,50898
aesthetic surgery,50898
CPSU,50898
Lagrange multipliers,50898
Camus,50898
positive youth development,50898
vinyl cyanide,50898
nonpolar solvent,50898
American Studies,50898
Piret,50898
water flea,50898
single-base extension,50898
Physalaemus pustulosus,50898
allostatic,50898
nongovernmental organization,50898
GB virus C,50898
glucuronidated,50898
family plan,50898
Knee replacement,50898
close packing,50898
integral systems,50898
New Member States,50898
Big Brain,50898
Iosif Stalin,50898
geotechnics,50898
inland navigation,50898
illegal immigration,50898
Grafham Water,50898
KNH,50898
Kuznets curve,50898
Pattern recognition receptors (PRRs),50898
polytomies,50898
Hannonia,50898
O horizon,50898
phi Persei,50898
Spongia officinalis,50898
Pieridae,50898
CeV,50898
Myotragus balearicus,50898
disorder operator,50898
orbital migration,50898
Philanthus triangulum,50898
Brachydanio rerio,50898
HSN,50898
run-time system,50898
La Rioja,50898
travel visa,50898
Euskirchen,50898
Queuing theory,50898
Marseille,50898
grounded theory method,50898
theridiid,50898
Antongil Bay,50898
ergodic measure,50898
mobile phone tracking,50898
atypical HUS,50898
sulfur bacterium,50898
Arusha,50898
low-emission vehicle,50898
GM-CSF receptor,50898
DR3,50898
A simple game,50898
hepatic cancer,50898
Muhammad,50898
Buckminsterfullerene,50898
"Huangpu district, Guangzhou",50898
intracellular volume,50898
SLC52A3,50898
Stereocaulon,50898
prime factor,50898
Cell adhesion molecule,50898
Stomach cancer,50898
CC-BY-NC-ND,50898
parafollicular,50898
Kaptein,50898
interstitial volume,50898
blood harvest,50898
IL1b,50898
food conversion efficiency,50898
DPP4,50898
spermatid,50898
plum stones,50898
Biliary injury,50898
Warwick,50898
structural inequality,50898
difference equation,50898
INBO,50898
Anion-exchange chromatography,50898
Pattern recognition,50898
mannose 6-phosphate,50898
literary criticism,50898
common data set,50898
sub-giant,50898
BNA,50898
creme brulee,50898
astounding,50898
labour camp,50898
Alpine foreland,50898
Salzburg,50898
Peritoneal fluid,50898
Selexol,50898
resonant orbits,50898
archaeon,50898
Jiyyeh,50898
dynamic game,50898
saviour sibling,50898
corner frequency,50898
disruptive innovation,50898
facsimile images,50898
Rudzutak,50898
abundant number,50898
The Economic Journal,50898
Glostrup,50898
Cellular automata,50898
double form,50898
Wigner crystal,50898
saprophytes,50898
ligand exchange reaction,50898
great skua,50898
Hubbard-Stratonovich transformation,50898
bolt,50898
valve sound,50898
organocatalyst,50898
felicity conditions,50898
dextroamphetamine,50898
slipper orchid,50898
Plan-Do-Study-Act,50898
acid-base equilibrium,50898
Forest Law,50898
Marengo,50898
Polyplectron,50898
nitric-oxide synthase,50898
Huangpu,50898
news values,50898
monastery,50898
Bipolar I,50898
natural equivalence,50898
gall midge,50898
Aden,50898
crop wild relatives,50898
Dexter,50898
Battambang Province,50898
case method,50898
secularism,50898
chemometrics,50898
Juliana,50898
linear algebra,50898
heart block,50898
Haptophyta,50898
horse genome,50898
cultural lag,50898
Peroxidase,50898
apoC-II,50898
Ketelmeer,50898
order theory,50898
Myriophyllum,50898
exponential equation,50898
complex trauma,50898
normal sinus rhythm,50898
Dutch East India Company,50898
Barbier-type,50898
spatial filter,50898
Graf,50898
Large Magellanic cloud,50898
Graham Greene,50898
workflow management,50898
Icelandic language,50898
Glaxo Smith Kline,50898
hereditary folate malabsorption,50898
L16,50898
phosphonite,50898
Alteromonas,50898
oxygen reduction reaction,50898
finitely additive,50898
post-Fordist,50898
Satiety,50898
leisure centre,50898
microRNA-122,50898
Syndecan-1,50898
Fluorescent light,50898
Zeeman splitting,50898
ATAG,50898
neutrino detector,50898
Google maps,50898
trinitrobenzenesulfonic acid,50898
Carbon-13,50898
nasopharynx cancer,50898
Financial Instability Hypothesis,50898
Rock-Paper-Scissors,50898
electoral district,50898
Central Limit Theorem,50898
depth-first search,50898
supported employment,50898
enchant,50898
Hoofddorp,50898
tetrapyrroles,50898
hepatitis G virus,50898
Ingenia,50898
dBA,50898
Phanerochaete,50898
dutasteride,50898
Hypercholesterolaemia,50898
dilevalol,50898
Critical Path Institute,50898
tyrosyl,50898
remotely operated vehicle,50898
Tactical Ops,50898
Binh Thuan province,50898
Manongarivo Special Reserve,50898
Enterprise Rent-A-Car,50898
Negros Occidental,50898
L183,50898
natural questions,50898
Child Behavior CheckList,50898
fixed-priority pre-emptive scheduling,50898
dry toilet,50898
embalming,50898
Optical Gravitational Lensing Experiment,50898
glovebox,50898
15-puzzle,50898
quartzitic,50898
Hair gel,50898
Bovidae,50898
supplementary motor cortex,50898
exocrine pancreas,50898
iduronate-2-sulfatase,50898
cystathionine gamma-lyase,50898
Fermion,50898
MSX1,50898
intercropping,50898
catalytic distillation,50898
International Ultraviolet Explorer,50898
Theridion,50898
2016 Olympic Games,50898
Embedded Figures Test,50898
pure linear,50898
pressure ratio,50898
partial agreement,50898
uniform algebra,50898
social safety net,50898
naturalisation,50898
Developmental Psychology,50898
non-abelian statistics,50898
Normandy,50898
Slack,50898
Helicoverpa gelotopoeon,50898
alluvial plain,50898
nonlinear sigma models,50898
sub-municipalities,50898
de Vaucouleurs,50898
response regulator,50898
phosphorylated tyrosine residue,50898
central planning,50898
SAFA,50898
net.,50898
DentEd,50898
ofloxacin,50898
actinides,50898
affine root system,50898
spanning subgraph,50898
kev,50898
dwang,50898
Harold Jeffreys,50898
bioethicist,50898
PROX,50898
Horby,50898
auto parts,50898
Inspector Morse,50898
current account balance,50898
Postmortem studies,50898
web API,50898
drug-target,50898
plasma osmolality,50898
immune mechanism,50898
continental platform,50898
borderline tuberculoid leprosy,50898
Data point,50898
Cw7,50898
Ophiuchus,50898
Gyrus,50898
tobit regression,50898
implicitly learn,50898
melatonin receptor 1B,50898
World Values Survey,50898
trace class,50898
ocean general circulation model,50898
F-17,50898
batch job processing,50898
rouleaux,50898
complex function theory,50898
Prymnesiophyceae,50898
hearing instrument,50898
crop diversity,50898
electrophoretic deposition,50898
American youth,50898
tlx,50898
ocular lobes,50898
UDI,50898
NS-2,50898
Phorbas,50898
type reconstruction,50898
paraventricular (PVN),50898
Space Shuttle Discovery,50898
RCZ,50898
Anatomical Therapeutic Chemical classification system,50898
CHSU,50898
homeosis,50898
tabloidization,50898
weakly compact,50898
Antilopinae,50898
tissue-selective,50898
Schlegel,50898
ETI,50898
paenula,50898
Standards Development Organization,50898
Hitchin,50898
thoracic vertebra,50898
light chain disease,50898
r-matrix,50898
trident,50898
The Queen,50898
M. expansa,50898
GRB 080916C,50898
RNA-induced silencing complex (RISC),50898
Nematoda,50898
task-positive network,50898
Kiryati,50898
pre-replication complex,50898
Simeto,50898
aisle,50898
nuclear programme,50898
specific granule,50898
supervenience,50898
Spectral bands,50898
synovial joints,50898
Thyrinteina,50898
Linux,50898
primitive terms,50898
Eplerenone,50898
probabilistic method,50898
southern Carpathian,50898
FDOPA,50898
Motion Sickness,50898
METI,50898
ACID,50898
OEM,50898
audiocassette,50898
overstep,50898
Clark electrode,50898
Stolberg,50898
Object-oriented programming,50898
encyclopedia,50898
General Motors,50898
pencil beam,50898
Khayelitsha,50898
Ryle Telescope,50898
2-chlorobutane,50898
"1,2-diacylglycerol",50898
Adjuvant Radiotherapy,50898
cultural geography,50898
real robot,50898
Moulage,50898
Politburo,50898
call option,50898
human homeostasis,50898
Glossa Ordinaria,50898
Scientific literature,50898
bmt,50898
Xinhua News Agency,50898
grails,50898
FR-1,50898
vinyl bromide,50898
Red Dawn,50898
demon,50898
Intrinsic motivation,50898
adenoids,50898
resonance structures,50898
meritocracy,50898
glycerophospholipid,50898
picryl chloride,50898
appendicolith,50898
Seefeld,50898
normal bundle,50898
Capital Medical University,50898
Tektronix,50898
measure-preserving,50898
superficial velocity,50898
phosphoinositol,50898
mullite,50898
isopropyl acetate,50898
Hodge bundle,50898
potential theory,50898
Noord-Holland,50898
mass culture,50898
antipruritic,50898
ijk,50898
electroplating,50898
dentin phosphoprotein,50898
Growth curve,50898
schwas,50898
abdominoperineal resection,50898
allopatric speciation,50898
heavy fuel oil,50898
anti-emetic,50898
balloon pop,50898
Pseudopontia paradoxa,50898
Zeitgeber,50898
outrageous fortune,50898
type 10,50898
AuCl,50898
BLAT,50898
Paramagnetism,50898
Boa Vista,50898
smothering,50898
citation analysis,50898
civil rights,50898
USP9Y,50898
Replica Exchange,50898
raising taxes,50898
Scientific Advisory Group,50898
body centered cubic,50898
Lophotrichus,50898
limulus,50898
firm foundation,50898
cleric,50898
foliose,50898
Swiss Army,50898
lie detection,50898
free models,50898
BNF,50898
Egotism,50898
Heinrich Scholz,50898
THRA,50898
natal teeth,50898
dot-com bubble,50898
GPLv3,50898
Castilian-speaking,50898
Bayesian Optimization,50898
magnetron sputtering,50898
Avascular necrosis,50898
coenzyme M,50898
scene statistics,50898
W[2,50898
Dhansiri,50898
Transcranial magnetic stimulation (TMS),50898
inspection time,50898
Hubei Province,50898
hormone-refractory prostate cancer,50898
curative intention,50898
Potassium chloride,50898
evolutionarily unstable,50898
Melanocortin,50898
4E-BP1,50898
translation initiation codon,50898
fuzzy clustering,50898
Newcastle Upon Tyne,50898
unsupervised classification,50898
l'argent,50898
Seed structure,50898
diborane,50898
Jan van Goyen,50898
angle resolved photoemission spectroscopy,50898
handheld computer,50898
independence complex,50898
Tanner scale,50898
Trend analysis,50898
Evans Blue,50898
Loss aversion,50898
PH2,50898
quadrilateral,50898
NWChem,50898
The item,50898
homotopy type,50898
Simone de Beauvoir,50898
magnetic bottle,50898
notochord,50898
optical sectioning,50898
targeted temperature management,50898
orbit space,50898
dialogism,50898
Lophogastrida,50898
photodissociation region,50898
Pacifica,50898
Koopmans,50898
Diamagnetic,50898
collocation method,50898
Saharan air layer,50898
vincamine,50898
Pharmacometrics,50898
5-formyltetrahydrofolate,50898
iv therapy,50898
TPHA,50898
PYS,50898
Caprini,50898
GS1,50898
central injection,50898
Central Television,50898
HAS2,50898
imidate,50898
WAZ,50898
Fonni,50898
ammonia borane,50898
Cicadidae,50898
band diagram,50898
korfball,50898
Italian journey,50898
5Cl,50898
baht,50898
kin recognition,50898
Roraima,50898
grey seal,50898
urban design,50898
Nautile,50898
crossing symmetry,50898
Wired,50898
boundary marker,50898
hypopharyngeal cancer,50898
Tonicity,50898
molybdenum disulphide,50898
legacy media,50898
deep orthography,50898
Agrostis,50898
anosmic,50898
sacral vertebra,50898
landscape planning,50898
Tyson,50898
Potamogeton natans,50898
Morin transition,50898
pictorial review,50898
Steatoda,50898
bishop,50898
smart phone,50898
Residue curve,50898
copular,50898
Halofantrine,50898
rapid deepening,50898
Merleau-Ponty,50898
polynomial convexity,50898
soil micromorphology,50898
PKCs,50898
Another woman,50898
cranial vault,50898
ethical consumerism,50898
Percutaneous transluminal angioplasty,50898
glow discharge,50898
tetrahydrothiophene,50898
tidal dissipation,50898
Self-acceptance,50898
Stockholm Syndrome,50898
hemoprotein,50898
Enchytraeidae,50898
loop quantum gravity,50898
Relative Biological Effectiveness,50898
gene bank,50898
intrauterine devices,50898
B-cell maturation antigen,50898
variational methods,50898
representativeness heuristic,50898
Free recall,50898
Histoplasma,50898
Binding potential,50898
Multi-Element Radio Linked Interferometer Network,50898
narrow-linewidth,50898
Rheumatoid Factor,50898
Clarida,50898
cgs units,50898
fuel economy,50898
promastigote,50898
diazonium salt,50898
Adobe,50898
Continuous Performance Task,50898
radical center,50898
fusion constructs,50898
posterior communicating,50898
Ems,50898
Monocarboxylate transporter,50898
UKK,50898
celiprolol,50898
Lacanian,50898
Baantjer,50898
Varopoulos,50898
GxT,50898
Ewald summation,50898
Annot,50898
Interpersonal communication,50898
Lower bound,50898
chill-out,50898
communitas,50898
Ernesto Laclau,50898
Fortune,50898
metalloenzyme,50898
mausoleum,50898
P. obtusifolius,50898
Noordoostpolder,50898
Triazolam,50898
amastigote,50898
CPV,50898
Intravascular ultrasound,50898
environmental standard,50898
R-tree,50898
New Institutional Economics,50898
vital statistics,50898
transition structures,50898
lattice matching,50898
polygon mesh,50898
NBc,50898
ketogenesis,50898
CMU,50898
chondroitin sulfate proteoglycan,50898
Ccr5,50898
Lorentz invariant,50898
Low frequency,50898
gimel,50898
Margriet,50898
The increment,50898
Ottomans,50898
Caveolin-1,50898
Folliculin,50898
special school,50898
motion simulator,50898
market liberalism,50898
Oxin,50898
sourceforge.net,50898
FU Orionis,50898
media type,50898
Transition Path Sampling,50898
Thymol,50898
Eyring equation,50898
prenatal visit,50898
Photoperiod,50898
Photomedicine,50898
C2 domain,50898
anatomical origin,50898
technical analysis,50898
anti-capitalist,50898
valley glacier,50898
disruptive technology,50898
seascape,50898
Thrombospondin,50898
sulfamate,50898
Deborah,50898
sulfolane,50898
static structure factor,50898
photoemission spectroscopy,50898
hemophiliacs,50898
Tully,50898
Virtex,50898
Pairwise comparison,50898
pseudophakic bullous keratopathy,50898
Sor-Trondelag,50898
political framing,50898
Nyquist frequency,50898
discrete valuation,50898
altimetry,50898
Ome,50898
Corydalis,50898
Ambler,50898
lunar phase,50898
English East India Company,50898
Ia afferent,50898
Principia,50898
satellite DNA,50898
transient synovitis,50898
Bromination,50898
open lung ventilation,50898
LT50,50898
THRB,50898
paleolake,50898
ANK2,50898
hijab,50898
fisheries management,50898
ALB,50898
carpel,50898
Interim analysis,50898
travel medicine,50898
gingival enlargement,50898
Laurasia,50898
labor union,50898
tritiated water,50898
Testes,50898
marionette,50898
Pontrjagin,50898
Pernis ptilorhyncus,50898
S70,50898
relativism,50898
transalkylation,50898
infectiology,50898
rPB2,50898
Timothy,50898
Anopheles sinensis,50898
Siaya County,50898
sub-cooled,50898
Cosmid,50898
Advance Directive,50898
Trophozoites,50898
nebuliser,50898
Djamila Boupacha,50898
Nikulin,50898
"3,4-methylenedioxy-N-methylamphetamine",50898
Mean elevation,50898
barrel cortex,50898
coenzyme B,50898
emergent plant,50898
choice sequence,50898
Grand Coalition,50898
Posttranslational modification,50898
block matrix,50898
hair cell,50898
therapeutic ultrasound,50898
Doushantuo,50898
submersible,50898
native PAGE,50898
separation range,50898
hydraulic diameter,50898
Southeast-Asia,50898
puerperal sepsis,50898
corn starch,50898
interleukin 27,50898
generalized lipodystrophy,50898
type 86,50898
R-trees,50898
HMMER,50898
avail,50898
Hybridisation,50898
XOR,50898
quaternary carbon,50898
Pyridinoline,50898
agent based model,50898
transition radiation,50898
moulage,50898
Dutch Turks,50898
ORC6,50898
text-to-speech,50898
hydrotalcite,50898
Principal component regression,50898
cognitive-cultural economy,50898
lateralisation,50898
rhizobium,50898
novation,50898
diffusion tensor MRI,50898
hour record,50898
anorectal malformation,50898
phototactic,50898
molality,50898
Quintana Roo,50898
anatomical pathology,50898
AKAP,50898
cis-trans isomerization,50898
life expectations,50898
glycosyl-phosphatidylinositol,50898
interference lithography,50898
eigenvalues/eigenvectors,50898
transverse abdominal muscle,50898
functional principal component analysis,50898
Specific Language Impairment,50898
auto-immune disease,50898
Goulburn,50898
Prothrombin time,50898
The Bulletin,50898
solid oxygen,50898
Glucose 6-phosphate,50898
copy number variant,50898
Strategic management,50898
cohomology ring,50898
Khmer,50898
Zande,50898
15 group,50898
multi-anvil press,50898
ashing,50898
Donald Weber,50898
MCh,50898
momentum map,50898
Old Bolsheviks,50898
asphyxiation,50898
thermometry,50898
galaxy evolution,50898
Stresa,50898
ICOSLG,50898
J Clin invest,50898
Civil War,50898
correspondence theory,50898
fibrillate,50898
Moiety,50898
Audiology,50898
Ammophila,50898
AUTOSAR,50898
poly ADP ribose polymerase,50898
Eurosystem,50898
shock front,50898
IREM,50898
Translucency,50898
Physical therapy,50898
proteobacterium,50898
ETX,50898
Formal Language,50898
P. pectinatus,50898
muscular layer,50898
Image reconstruction,50898
tetrazolium salts,50898
tryptophane,50898
tetraphosphorus,50898
tetraphenylphosphonium,50898
ACCAD,50898
haemostat,50898
titanium tetrachloride,50898
YAP,50898
tonsillar cancer,50898
Cameroun,50898
Haemorrhoids,50898
delay-insensitive,50898
Wallander,50898
Fenton chemistry,50898
benzoxadiazol,50898
Agouti-related peptide,50898
"Wayne, NJ",50898
Striatum,50898
Nautical Archaeology,50898
ProMED-mail,50898
Capronia,50898
Thalassia,50898
phosphodiester bond,50898
citation network,50898
Ebro Delta,50898
probability-generating function,50898
axial vector,50898
Koopmans' theorem,50898
gLite,50898
gingival hyperplasia,50898
Metamorphosis,50898
The explosion,50898
hypertensive retinopathy,50898
TBX15,50898
Trialeurodes vaporariorum,50898
hepatobiliary malignancies,50898
channel model,50898
phylogenomic,50898
expanding earth,50898
organization theories,50898
sodium hyaluronate,50898
50S,50898
chromosomal deletion,50898
choice sequences,50898
coarticulatory,50898
Chantal Mouffe,50898
RMB,50898
slit-lamp examination,50898
Lower Miocene,50898
"3,4-methylenedioxy-N-ethylamphetamine",50898
NAMD,50898
pentosan polysulphate,50898
functionalism,50898
codfish,50898
European beech,50898
Hobbesian,50898
Traquair,50898
Radionuclide imaging,50898
Bronte,50898
Optically stimulated luminescence,50898
chromosome 1p22,50898
BABAR,50898
Appendicitis,50898
Corticotropin-releasing hormone,50898
Single nucleotide polymorphism (SNP),50898
Constant de Deken,50898
benzocyclobutadiene,50898
subunit vaccine,50898
urine dipstick,50898
Quality Of Life (QOL),50898
400 days,50898
portmanteau,50898
43 group,50898
effective radii,50898
More og Romsdal,50898
completeness theorem,50898
good manager,50898
Laminaria hyperborea,50898
zinc sulphate,50898
epigenetic methylation,50898
hydrolysing,50898
seasonal temperature variation,50898
Amberg,50898
C-H bond activation,50898
blind trial,50898
Q-ball,50898
glacial boundary,50898
South China Sea,50898
Tesauro,50898
quoted speech,50898
Whitley,50898
blended learning,50898
disease cluster,50898
spectral method,50898
Lannes,50898
anarchy,50898
exotoxin,50898
visual analytics,50898
action variables,50898
breakfast time,50898
Backscattering,50898
vaso-occlusive crisis,50898
Rhesus D,50898
bit commitment,50898
solar luminosity,50898
mocap,50898
great vessel,50898
CFDA,50898
dynamic pressure,50898
British islands,50898
astrophysical jets,50898
Rectal prolapse,50898
The move,50898
zirconium hydroxide,50898
lying position,50898
R71,50898
Cymodocea,50898
2dF,50898
Rayleigh-Taylor instabilities,50898
Timaeus,50898
concentration parameter,50898
WARS2,50898
LAV,50898
chiral limit,50898
Aleksandr Shelepin,50898
Ionizing radiation,50898
P. pusillus,50898
anglophone,50898
autocovariance,50898
alogliptin,50898
curvature invariant,50898
covalent organic framework,50898
moving block,50898
Network model,50898
Central Pacific,50898
vulvar carcinoma,50898
CaCo-2,50898
valence shell,50898
Heisenberg picture,50898
Ystad,50898
chsu,50898
observationally equivalent,50898
Hereditary hemorrhagic telangiectasia,50898
optical cavity,50898
Self-categorization theory,50898
projective geometry,50898
metaphonic,50898
nitrobenzenes,50898
Sports injury,50898
Cardiotoxicity,50898
Carbon monoxide,50898
pregnanolone,50898
salen,50898
nasal decongestants,50898
Tula,50898
Phospholipid,50898
terpenoid biosynthesis,50898
Roer,50898
polyaniline,50898
Differential Optical Absorption Spectroscopy,50898
computational fluid dynamic,50898
Amsterdam Schiphol Airport,50898
Stochastics,50898
Diazaborine,50898
organogels,50898
Harmful algal blooms,50898
dynamic nuclear polarisation,50898
enuresis,50898
spin-half,50898
Nonnegative,50898
Road pricing,50898
Fibrodysplasia ossificans progressiva,50898
Isotretinoin,50898
Peanut agglutinin,50898
Ecosystem management,50898
gas electron diffraction,50898
L-space,50898
Micrognathia,50898
Eastern Scheldt,50898
Isoflavones,50898
stress shielding,50898
Talc,50898
Hypersensitivity,50898
Lie bracket,50898
Pasterze glacier,50898
Epirus,50898
Leptothrix,50898
surjection,50898
bon,50898
Pachyonychia congenita,50898
Analyte,50898
Sorbitol,50898
ihf,50898
nitric-oxide reductase,50898
Hexokinase II,50898
forebears,50898
Sakata,50898
Wheelchair sports,50898
Capillary electrophoresis,50898
multiagent system,50898
animal ethics,50898
antirheumatic agents,50898
Bacteriocin,50898
coherent control,50898
Austronesian language,50898
Cerebellar nuclei,50898
laser linewidth,50898
MHW,50898
Lucania,50898
figurative language,50898
Richard Barrett,50898
aortoenteric fistula,50898
sears,50898
pulsed field gel electrophoresis,50898
dielectric dispersion,50898
mastocytosis,50898
c-met,50898
ruthenium trichloride,50898
Takahashi,50898
agglutinated foraminifera,50898
group polarization,50898
Imminent,50898
virtual communities,50898
cultural leveling,50898
Debrisoquine,50898
Poa,50898
gliclazide,50898
Default logic,50898
Self-assessment,50898
RPGR,50898
"Clinton, Connecticut",50898
Enriques surface,50898
nutritionDay,50898
Hapten,50898
Adenine,50898
secoiridoid,50898
interference experiments,50898
PNAs,50898
Saruplase,50898
heteroarene,50898
Slaughter,50898
Rutherford backscattering,50898
converging uniformly,50898
locus ceruleus,50898
Eratosthenes Seamount,50898
Capsaicin,50898
Corporate Social Responsibility (CSR),50898
conditional obligations,50898
rifle,50898
African Reed Warbler,50898
animal room,50898
H-theorem,50898
histamine receptor antagonist,50898
Curve fitting,50898
opioid peptide,50898
forearc basin,50898
Arth,50898
SPRR,50898
Software architecture,50898
Nitrous oxide,50898
enflurane,50898
object-oriented language,50898
parotidectomy,50898
sulfite,50898
serial interval,50898
performance metric,50898
river ecosystem,50898
Hans Freudenthal,50898
acrosome reaction,50898
just-noticeable difference,50898
stratified squamous epithelia,50898
Neuronal oscillations,50898
Thiopurine S-methyltransferase (TPMT),50898
waveguiding,50898
external cost,50898
Free base,50898
optic tectum,50898
IHF,50898
Sympathectomy,50898
Sea surface temperature,50898
Th.M.,50898
sugar alcohol,50898
Human Touch,50898
environmental Kuznets curve,50898
Potential energy,50898
Intuition,50898
equity theory,50898
oligozoospermia,50898
aplidine,50898
TD5,50898
Oral hairy leukoplakia,50898
dental floss,50898
Lecithin,50898
biofiltration,50898
Tononi,50898
Genetic recombination,50898
Universal Force Field,50898
general intelligence factor,50898
"1,2,4-triazoles",50898
antidromic,50898
bandit problem,50898
Isshiki,50898
French bean,50898
Mineral dust,50898
Erythropeltidales,50898
Buccinum,50898
Heatherton,50898
anti-microbial peptides,50898
Semliki,50898
Oral candidiasis,50898
Atracurium,50898
Pasterze,50898
Polydactyly,50898
morphine sulfate,50898
cognitive-behaviour therapy,50898
Metabolic bone disease,50898
Lymphomatoid papulosis,50898
Halten,50898
polymer adsorption,50898
induction furnace,50898
Nuclear energy,50898
syringofibroadenoma,50898
GePh,50898
Sentinel lymph node,50898
Oncostatin M,50898
t-BuLi,50898
Natural killer (NK) cells,50898
asset recovery,50898
self-enhancement,50898
Chylomicrons,50898
Electromagnetic interference,50898
Familial combined hyperlipidemia,50898
Absorbance,50898
pulsed laser deposition,50898
chemical safety,50898
Streptavidin,50898
Scavenger,50898
Current Population Survey,50898
spectroradiometer,50898
Bronchodilator,50898
Flaxbourne River,50898
scattering matrices,50898
post-impressionistic,50898
Surfactant protein A,50898
Subluxation,50898
Linear IgA bullous dermatosis,50898
Kinsey,50898
potassium fluoride,50898
Epichlorohydrin,50898
IP3 receptor,50898
Sandy,50898
Allergic reactions,50898
partition chromatography,50898
postherpetic neuralgia,50898
dipteran,50898
phenoxy acid,50898
thc,50898
Holden,50898
Toxaphene,50898
Valeriana,50898
hydrogeochemistry,50898
design rationale,50898
Numerical modeling,50898
elliptic quadric,50898
Pingtung Plain,50898
potassium channel opener,50898
primary pulmonary hypertension,50898
manifestly covariant,50898
Callistemon,50898
Inertial Measurement Unit,50898
task parallelism,50898
spinal needle,50898
Nuclear Magnetic Resonance,50898
patch dynamics,50898
signal recognition particle receptor,50898
Hypertriglyceridaemia,50898
Varus,50898
frictional unemployment,50898
NaBrO3,50898
Hip fracture,50898
fundamental beliefs,50898
gonocytes,50898
afferent connections,50898
Latane,50898
valrubicin,50898
Pentosan polysulphate,50898
isoquinolines,50898
Wicksell,50898
superconductor insulator transition,50898
"1,000 years",50898
Methadone,50898
Congenital absence,50898
brute,50898
radiotoxic,50898
Atropa,50898
apparent viscosity,50898
Nitra,50898
Phrenic nerve,50898
Carbon tetrachloride,50898
McDowell,50898
Valeriana officinalis,50898
Valerophenone,50898
word-final devoicing,66377
Griffin,50898
grazing incidence,50898
Thin-layer chromatography,50898
Boron Neutron Capture Therapy,50898
Great War,50898
12012,50898
Eosinophil cationic protein,50898
Modulations,50898
Metallothionein,50898
volatile organic compound,50898
catalytic combustion,50898
Protestant Work Ethic,66389
generative phonology,50898
Cowichan,50898
Cajal bodies,50898
hires,50898
ice crystal,50898
Achillea millefolium,50898
Problem solving,50898
Lucas Critique,50898
Blalock-Taussig shunt,50898
meta-Chlorophenylpiperazine,50898
Neurturin,50898
commutant lifting theorem,50898
Ho chi Minh City,50898
Flesinoxan,50898
anti-muscarinic,50898
Serpukhovian,50898
System Sensor,50898
Gonadotropin-releasing hormone,50898
coccolithophorid,50898
curriculum theory,50898
Buffy coat,50898
evolutionarily distinct,50898
El Segundo blue butterfly,50898
starch granules,50898
Aisne,50898
diquat,50898
fotemustine,50898
Condon,50898
tetrazole,50898
photoionisation,50898
volvulus,50898
DKS,50898
non-ideal gas,50898
CD274,50898
Flysch,50898
L-Lysine,50898
D-Fructose,50898
GSM,50898
fibronectin type II domain,50898
shale,50898
Acvr1,50898
MSR1,50898
Knight shift,50898
Bartsia,50898
cis-trans isomerism,50898
ribosomal S6 kinase,50898
bcl-xl,50898
freeze-tolerant,50898
Inhaler,50898
DJF,50898
CA 72-4,50898
Glucose oxidase,50898
electromagnetic theory,50898
Yucatan,50898
Sensation-Seeking Scale,50898
reamer,50898
calcar,50898
OHL,50898
rutinoside,50898
trachyandesite,50898
nopaline,50898
Somateria,50898
Iceland plume,50898
River Elbe,50898
Gaussian curve,50898
passive stretching,50898
sternohyoid,50898
C. monogyna,50898
paleoecology,50898
Campylobacter rectus,50898
inferior colliculi,50898
clinician-administered PTSD scale,50898
homogeneous broadening,50898
district nurse,50898
Instagram,50898
molecular replacement,50898
Rossa,50898
common whelk,50898
Involucrin,50898
alpina,50898
mandibular arch,50898
Antarctic peninsula,50898
Macromolecules,50898
Spirulina,50898
non-ulcer dyspepsia,50898
HIF-1a,50898
COX4I1,50898
Stromness Bay,50898
Eurasian plate,50898
19B,50898
colophony,50898
Holocrystalline,50898
proxy server,50898
capillary number,50898
sugar phosphates,50898
FBT,50898
tetrahedron,50898
diminishing marginal returns,50898
inferior petrosal sinuses,50898
teicoplanin,50898
C3G,50898
breakdown point,50898
Galium,50898
Allende meteorite,50898
"1,2-dimethylcyclopropane",50898
coproporphyrinogen oxidase,50898
8-bit,50898
enamel matrix protein,50898
geometric isomers,50898
Transaction Logic,50898
turntable,50898
alanine scan,50898
urorectal septum,50898
Rabat,50898
terpineol,50898
genotropin,50898
tixocortol pivalate,50898
orthodromic,50898
Fallopian tube cancer,50898
F layers,50898
polyarteritis nodosa,50898
Mathematical Biology,50898
flysch,50898
The modulations,50898
BC3,50898
water potential,50898
potassium ferrocyanide,50898
DSM III,50898
ADV,50898
Alternanthera philoxeroides,50898
FOXO3,50898
TNM staging system,50898
Italian FA,50898
Saka,50898
GDC,50898
VTEC,50898
Vascular resistance,50898
2-C-methyl-D-erythritol 4-phosphate,50898
radioactive tracer,50898
polyolefin,50898
RS-127445,50898
ACCA,50898
eu-,50898
Estring,50898
neuralgia,50898
Alicante,50898
caudal regression syndrome,50898
Denaturation,50898
fool,50898
deuterium NMR,50898
BTU,50898
prosody,50898
mCPP,50898
affinity immunoelectrophoresis,50898
intralaminar thalamic nuclei,50898
Crotalus adamanteus,50898
Mart.,50898
decussation,50898
germinal matrix,50898
rotameter,50898
aer,50898
ATP-binding motif,50898
Stefan George,50898
basolateral cell membrane,50898
spit,50898
Atlantic basin,50898
Motta,50898
amoeba,50898
Benedict,50898
atracurium,50898
inhaler,50898
Z. mays,50898
nihilism,50898
vesico vaginal fistula,50898
Sisterhood Method,50898
Qp,50898
Motor units,50898
bt,50898
CAQ,50898
Christmas,50898
betaR,50898
Tsang,50898
Self-sufficiency,50898
Onlap,50898
latissimus dorsi muscle,50898
base J,50898
The breaks,50898
Elim,50898
5T4,50898
bankfull discharge,50898
BTS,50898
Conradson carbon residue,50898
vital stain,50898
dielectric spectroscopy,50898
chorea,50898
stagnation point flow,50898
Cypher,50898
Gaal,50898
radialene,50898
wheelchair sports,50898
thermolysis,50898
6 balloons,50898
F layer,50898
caudate nuclei,50898
adenosquamous carcinoma,50898
tinidazole,50898
3-methylglutaconyl-CoA,50898
cervical myelopathy,50898
choroid plexus cysts,50898
matrilysin,50898
cloacal membrane,50898
RT-1,50898
ferrule,50898
thermospermine,50898
H6,50898
superficial vein,50898
East European platform,50898
N33,50898
A76,50898
PSAP,50898
B. cereus,50898
galangin,50898
Bishop Tuff,50898
bitrate,50898
trolox equivalent antioxidant capacity,50898
e-cadherin,50898
microtome,50898
enkephalins,50898
monostearate,50898
Corynebacterium urealyticum,50898
BAPTA,50898
follicular fluid,50898
Murehwa,50898
normal strain,50898
sanidine crystals,50898
tragus,50898
fungal pneumonia,50898
glyceryl trinitrate,50898
M197,50898
vesamicol,50898
chlorisondamine,50898
PICALM,50898
Gps,50898
SLAC,50898
branchial pouch,50898
3-pentanone,50898
effective diffusion coefficient,50898
Harbour Point,50898
polA,50898
Pinatubo,50898
mdt,50898
ampholyte,50898
Skin grafting,50898
coated paper,50898
loratadine,50898
TrkC,50898
Henon map,50898
Kitson,50898
Chlorella,50898
apoe,50898
voltage-activated calcium channels,50898
frequency-time,50898
cerebellar nuclei,50898
Size-exclusion chromatography,50898
2-AA,50898
alkaline earth,50898
TII,50898
Spermatozoa,50898
frame-shift mutation,50898
IZ,50898
EDD,50898
occipital neuralgia,50898
ABCA7,50898
Wadden Islands,50898
bradyphrenia,50898
comonomer,50898
leading coefficient,50898
MAOB,50898
Fas receptor,50898
hypophysectomy,50898
impentamine,50898
Planck distribution,50898
MPV,50898
lac operator,50898
reinnervate,50898
totally ordered group,50898
high-resolution transmission electron microscopy,50898
cellular network,50898
cyanogenesis,50898
"1,1-diphenyl-2-picrylhydrazyl",50898
Molecular beam,50898
Tiglian,50898
Firenze,50898
bioadhesive,50898
Cholesky decomposition,50898
Griseb.,50898
Androniscus dentiger,50898
Electron paramagnetic resonance spectroscopy,50898
Viscosity,50898
Fadrozole,50898
LCAO,50898
ACET,50898
peripheral vein,50898
lactose tolerance test,50898
NIFL,50898
CYP26A1,50898
ZPE,50898
hemiparasite,50898
Sierra de Cuera,50898
uHT,50898
Sanidine,50898
study skin,50898
Nonlinear analysis,50898
Atrophic gastritis,50898
flotillin,50898
N44,50898
chromosomal mosaicism,50898
superior cerebellar peduncles,50898
flat model,50898
carbonate group,50898
"2,5-dimethoxy-4-iodoamphetamine",50898
Pindos,50898
bipolar affective disorder,50898
UPA,50898
amisulpride,50898
nim,50898
oil pollution,50898
sodium thiosulphate,50898
Cygnus columbianus,50898
prolonged labour,50898
cross-tolerance,50898
One-electron reduction,50898
Ilford,50898
DETA,50898
cephradine,50898
lipo,50898
obduction,50898
velum interpositum,50898
spiralling,50898
Abstract State Machines,50898
Brederode,50898
Lokon,50898
lymphocystis,50898
metaphony,50898
"2,4-pentanedione",50898
2-pyrone,50898
B-B,50898
B burgdorferi,50898
DPHP,50898
S. bicolor,50898
contact metamorphic,50898
alpha-hydrogen,50898
M139,50898
ethephon,50898
Table Mountain,50898
TAD,50898
Mayo clinic,50898
Savu,50898
potassium ferricyanide,50898
Whit Monday,50898
chrysin,50898
Typical antipsychotic,50898
clemastine,50898
ectomesenchyme,50898
isopycnic,50898
Al-1,50898
follicular stage,50898
iso-electric point,50898
OVT,50898
Diborane,50898
insulin-like growth factor-binding protein 1,50898
horse radish,50898
seedbank,50898
maya,50898
W-H,50898
hf1,50898
Iceman,50898
CPT II,50898
isosorbide dinitrate,50898
vaginal atrophy,50898
550 Ma,50898
map distance,50898
transmission factor,50898
BXP,50898
Intensive Care Medicine,50898
Coongan,50898
Mooren,50898
UGT2B15,50898
etidocaine,50898
symphysis,50898
aflatoxin,50898
Aar,50898
mdbz,50898
Seychelles Warbler,50898
Diuretics,50898
Specol,50898
anti-dsDNA antibodies,50898
KLI,50898
erythemal,50898
clast,50898
monic,50898
cometary dust,50898
Fenitrothion,50898
E17,50898
Arion ater,50898
lactose synthase,50898
Santa Lucia,50898
carboxypeptidase A,50898
descending limb,50898
Peneroplis,50898
Haplophthalmus,50898
R55,50898
KT boundary,50898
specific-pathogen-free,50898
Quinone,50898
parametric statistics,50898
CLSA,50898
CSV,50898
simple linear regression,50898
U-715,50898
biosynthesized,50898
French-American-British classification,50898
oxidative burst,50898
Husvik Harbour,50898
dehydrofluorination,50898
Poiseuille equation,50898
nAMD,50898
Pierre Robin,50898
Glasgow coma scale,50898
glutathione transferase,50898
adductor muscle group,50898
residual standard deviation,50898
platinum(II) chloride,50898
temperate coniferous forests,50898
prethalamic,50898
triangular array,50898
neutropenic sepsis,50898
Endoglycosidase H,50898
TIRF,50898
Pulmonary shunt,50898
rhizoxin,50898
North Sea Basin,50898
A50,50898
PYD,50898
nanogram,50898
Intermediate-acting insulin,50898
ESI-TOF,50898
Oil Red O,50898
exonucleases,50898
RT-2,50898
cyanine,50898
clonazepam,50898
fetal aneuploidy,50898
Limax maximus,50898
GIL,50898
camphene,50898
Progradation,50898
blepharoplasty,50898
common reaction,50898
northern blotting,50898
Okinawa,50898
Microsatellite analysis,50898
base saturation,50898
gynecological examination,50898
equipotency,50898
Rockall score,50898
osteon,50898
Turnhout,50898
MOZ,50898
neuropeptide receptor,50898
wavy hair grass,50898
effective stress,50898
IGFBP3,50898
ODM,50898
catharanthine,50898
equilibrium sedimentation,50898
dental follicle,50898
Lauro,50898
basal dendrites,50898
absolute reference frame,50898
tectum,50898
arylamine,50898
NK2,50898
Two-photon excitation microscopy,50898
metamorphic gradient,50898
Jason Harbour,50898
calcidiol,50898
inferior olive,50898
Mulhacen,50898
entropion,50898
geomorphologically,50898
distal interphalangeal joint,50898
Cosmids,50898
isi,50898
grain boundary sliding,50898
Cockroft,50898
prostatism,50898
Late Permian,50898
norma,50898
Teiidae,50898
bedwetting,50898
HHO,50898
dental lamina,50898
glycolaldehyde,50898
Moscovian,50898
TAP1,50898
digital terrain model,50898
cisgender,50898
acrosome,50898
transactivate,50898
AIREN,50898
laminate,50898
dysuria,50898
Petten,50898
lateral globus pallidus,50898
The Latest,50898
divided domain,50898
Hercynian,50898
Semail ophiolite,50898
E-isomer,50898
additive function,50898
Brenta,50898
Semail Ophiolite,50898
activated sludge process,50898
hepatic portal vein,50898
color marker,50898
Moclobemide,50898
pigskin,50898
Mediterranean ridge,50898
matrix led,50898
Molecular cloning,50898
LW,50898
fresh river,50898
R75,50898
A485,50898
Henderson Reed Warbler,50898
photographic emulsion,50898
c-IAP2,50898
termination codon,50898
UDP-glucuronyltransferase,50898
batimastat,50898
3-hydroxyflavone,50898
platinum(IV) chloride,50898
hydrogen phosphate,50898
GnRH receptor,50898
obducted,50898
gabapentin,50898
isotretinoin,50898
Dominica,50898
airspace,50898
popliteal fossa,50898
norE,50898
Whit Sunday,50898
central venous oxygen saturation,50898
acute myelogenous leukaemia,50898
UF6,50898
Metacarpophalangeal joint,50898
olaparib,50898
NT-3,50898
Antiproliferative,50898
2-phenylethylamine,50898
Aplysia parvula,50898
sphenopalatine ganglion,50898
M30,50898
cottongrass,50898
Foe,50898
Apocynin,50898
free air CO2 enrichment,50898
Psychiatric history,50898
GKO,50898
thymine glycol,50898
Cantabrian Mountains,50898
fusion transcript,50898
wave length,50898
U.S. 20,50898
Mastectomy,50898
hydroxylamine hydrochloride,50898
amyloplast,50898
vector DNA,50898
Cumberland West Bay,50898
claustrum,50898
Didemnin,50898
Autographa californica,50898
camphor,50898
befunolol,50898
Intradialytic hypotension,50898
APGAR score,50898
TEPI,50898
psychological methods,50898
sexism,50898
tyrosine hydroxylase inhibitor,50898
Instron,50898
odontoblast,50898
micrococcal nuclease,50898
hydron,50898
gastroscope,50898
Conglomerate records,50898
distomer,50898
Vasopressin,50898
ring doves,50898
arabinitol,50898
NK/T-cell lymphoma,50898
bulbils,50898
Phonation,50898
convection cell,50898
S9 fraction,50898
side-scan,50898
Vinorelbine,50898
pseudouridine,50898
Apelin,50898
dimethyl sulfate,50898
D-arabinitol,50898
Sierra de Guadarrama,50898
loon,50898
adventitious roots,50898
accretionary prism,50898
Millipore,50898
deformation mechanism,50898
benzbromarone,50898
common iliac,50898
anethole,50898
D-fructose,50898
FNAC,50898
heavy gear,50898
quadriparesis,50898
H-bridge,50898
Coniacian,50898
tolyl,50898
mobbing,50898
"Malvern, Pennsylvania",50898
gekkonid,50898
atomic charge,50898
nase,50898
Gonadectomy,50898
Blueschist,50898
x-ray crystallographic,50898
FGD4,50898
T-7,50898
KT/V,50898
TreadMarks,50898
and1,50898
Isola,50898
8-OH-dG,50898
Trichodiscus,50898
Harich,50898
"Friant, California",50898
Iridovirus,50898
trichlorophenol,50898
torr.,50898
UV-Visible spectroscopy,50898
anionic polymerization,50898
"lymphoma, mantle-cell",50898
Oligomers,50898
Tripoli,50898
thallium halides,50898
premorbid intelligence,50898
DNAse I,50898
Hamilton Depression,50898
ClO2,50898
sodium dihydrogen phosphate,50898
just-in-time compiler,50898
post-stroke depression,50898
93T,50898
Araldite,50898
polylysine,50898
recumbent folds,50898
F-22,50898
NOS3,50898
pseudoplastic,50898
M5a,50898
Grytviken,50898
DAMGO,50898
SI unit,50898
nuclear polyhedrosis virus,50898
LTx,50898
cyclic succession,50898
King Edward Point,50898
suspensory ligament,50898
agyria,50898
fulvene,50898
inhaled bronchodilators,50898
amniotic cavity,50898
16 nm,50898
Fibrinoid necrosis,50898
Namib Desert,50898
Rothia dentocariosa,50898
EPHA5,50898
rapid sand filtration,50898
inositol trisphosphate,50898
MCAT,50898
immortalized cells,50898
lav,50898
MSRI,50898
The DIG,50898
S. intermedius,50898
Early Pliocene,50898
bedwetters,50898
nonpermeable,50898
dilatant,50898
Montserrat,50898
methyl carbamate,50898
protonate,50898
stable manifold,50898
WAR,50898
coastal barriers,50898
ESFA,50898
C-fibres,50898
oospore,50898
calcium buffers,50898
Plastid,50898
plain X-ray,50898
r156,50898
Extensional tectonics,50898
deep bite,50898
Amaryllidaceae,50898
c-MET,50898
$US,50898
particle mesh Ewald,50898
cumulene,50898
pegmatite,50898
POLDER,50898
aryl sulfotransferase,50898
urinary fistula,50898
Parasitemia,50898
root extraction,50898
Notonectidae,50898
femtomol,50898
HNA,50898
Induration,50898
c-IAP1,50898
W5,50898
Benguela,50898
antennal lobe,50898
Cumberland East Bay,50898
time evolution operator,50898
pepsinogen,50898
Dehydrohalogenation,50898
emptiness,50898
Harare,50898
UF5,50898
Orang Asli,50898
Otztal,50898
metaphyses,50898
Biochimie,50898
vesicle-associated membrane protein 2,50898
thrust fault,50898
sodium citrate,50898
Upper Triassic,50898
Solt,50898
dexibuprofen,50898
genital tubercle,50898
ethyleneglycol,50898
Aerial hyphae,50898
US3,50898
chain fraction,50898
ELH,50898
Flavones,50898
modal haplotype,50898
barrier spit,50898
total correlation,50898
decidualization,50898
Base pair,50898
planation,50898
Grenada,50898
mylonite,50898
Upton Warren,50898
Suppletion,50898
Retinoid,50898
Fucosylation,50898
gin,50898
haematemesis,50898
5-Hydroxytryptamine,50898
threatened miscarriage,50898
organic synthesis,50898
urachus,50898
ketonization,50898
N-telopeptide,50898
19D,50898
terminal deoxynucleotidyl transferase,50898
ireland,50898
polyethyleneterephthalate,50898
urokinase (uPA),50898
high gear,50898
isovolumic contraction,50898
area 25,50898
Aval,50898
Fas Ligand,50898
Photosynth,50898
Atlantic Modal Haplotype,50898
trisaccharides,50898
human anti-mouse antibody,50898
celtica,50898
Bosch,50898
canthus,50898
anticline,50898
chloroacetaldehyde,50898
Dunai,50898
Montelukast,50898
portosystemic shunt,50898
Nuuk,50898
Andijk,50898
Lucia,50898
Nouzonville,50898
OR 8,50898
tumor promotion,50898
Arachis,50898
67Ga,50898
dynamic recrystallization,50898
mitochondrial myopathies,50898
DPDPE,50898
compile-time,50898
DCK,50898
chitobiose,50898
cyclopentadienyl anion,50898
ACC-oxidase,50898
Cape Cod bay,50898
Greater India,50898
Stokes radius,50898
Capacitance,50898
M2I,50898
tegument,50898
object-oriented database,50898
A12,50898
Myogenin,50898
ionic bond,50898
dichlorocarbene,50898
mesosphere,50898
spike generation,50898
triethanolamine,50898
tourmaline,50898
random permutation,50898
L-Dopa,50898
Menorca,50898
tetraglyme,50898
aliphatic hydrocarbon,50898
San Andres,50898
Shona,50898
vinylogous,50898
birth injury,50898
diplophonia,50898
platooning,50898
Scopulariopsis brevicaulis,50898
ethyne,50898
Atlantic Canada,50898
scalar product,50898
Lithobius,50898
laser detuning,50898
ionic surfactant,50898
self-avoiding walks,50898
Executive Information System,50898
SS-1,50898
soil pollutants,50898
JET,50898
tetraparesis,50898
palatalization,50898
precipitable water,50898
Heck coupling,50898
Manduca sexta,50898
ventriculoperitoneal shunt,50898
World War ii,50898
Melaleuca,50898
Propofol,50898
social cohesiveness,50898
maximum principle,50898
Turing degree,50898
Compsopogonales,50898
drift velocity,50898
DiPEA,50898
Natural capital,50898
Lorentz transformations,50898
The agonist,50898
chain shift,50898
Heathrow,50898
finite geometry,50898
4-momentum,50898
Modality,50898
contingency theory,50898
interleukin 3,50898
Shearwater,50898
Pancoast tumor,50898
time Lost,50898
dsdm,50898
Connecticut,50898
phosphodiesterase inhibitors,50898
Interleukin-2,50898
L50,50898
biotrophic,50898
trimethyl orthoformate,50898
behavioral medicine,50898
Albert Verwey,50898
pastoralist,50898
reminiscing,50898
projective space,50898
hop plant,50898
suggestibility,50898
staphylococcal enterotoxin,50898
Acrocephalus baeticatus,50898
L26,50898
Darley,50898
Holliday junction,50898
Edelman,50898
Field T,50898
Samsun,50898
Blessed,50898
nigrostriatal system,50898
lead glass,50898
adrenocortical cancer,50898
immunoproliferative,50898
Indo-European languages,50898
habitual abortion,50898
streaming video,50898
Bessel beam,50898
freeze dried,50898
average labor productivity,50898
unstable manifold,50898
Paris Basin,50898
surface hopping,50898
brown-coal,50898
wave equation,50898
Ilex paraguariensis,50898
labia majora,50898
consumer good,50898
deciduous forest,50898
quadrupedal,50898
wlw,50898
malrotation,50898
Sierra Nevada Batholith,50898
baetica,50898
lisrel,50898
Plectranthus,50898
perennial crops,50898
characteristic function form,50898
Magidor,50898
imposex,50898
toy rattle,50898
astrocytosis,50898
communist bloc,50898
acidaemia,50898
structural unemployment,50898
apoptotic events,50898
direct immunofluorescence,50898
tethered spinal cord,50898
phase problem,50898
Transcutaneous electrical nerve stimulation,50898
Dagshai,50898
furaldehyde,50898
Salatiga,50898
software measurement,50898
Assen,50898
Bernoulli distributed,50898
coroner,50898
Klier,50898
LTD4,50898
economic liberalisation,50898
athetoid,50898
vector measure,50898
tiaprofenic acid,50898
aldicarb,50898
HLA-DR2,50898
autistic spectrum,50898
Physical education,50898
Hercegovina,50898
similarity transformations,50898
maximum entropy method,50898
The Law,50898
extension problem,50898
equilibrium concept,50898
phase-conjugate mirror,50898
Digitalis,50898
communication behavior,50898
Q-switching,50898
Maassen,50898
Hermite-Gaussian,50898
ballast water,50898
bromobenzene,50898
Streptopelia,50898
Concurrent object-oriented Programming,50898
alcoholic fermentation,50898
bit rate,50898
north Atlantic Ocean,50898
Seasonal Affective Disorder,50898
multi-user dungeons,50898
Internet society,50898
2-bromopyridine,50898
PL/I,50898
Noordwijkerhout,50898
chelate complex,50898
400 boys,50898
tectonic window,50898
olympic distance triathlon,50898
chondromatosis,50898
absolute signal,50898
cyclopean,50898
Cephalotes,50898
Enhalus acoroides,50898
Metal-Organic Frameworks,50898
CASE tool,50898
Zaandam,50898
Terschelling,50898
mobile communication,50898
Poincare-Bendixson Theorem,50898
apneic,50898
solid oxide fuel cell,50898
Lewisian complex,50898
stratotype,50898
infinite product,50898
juvenile chronic arthritis,50898
differential system,50898
Scute,50898
parousia,50898
variational bicomplex,50898
dicalcium phosphate,50898
pore fluid pressure,50898
Hestia,50898
axe,50898
telepathology,50898
Vierh.,50898
Collagen type I,50898
arterial dissections,50898
opisthobranch,50898
corollas,50898
prime mover,50898
Dihydralazine,50898
Extracorporeal circulation,50898
Mouse Genome Database,50898
anisomycin,50898
Chelation,50898
Nevis,50898
K-T event,50898
blueschist,50898
Chondrocyte,50898
parallel motion,50898
telangiectases,50898
Electrophoretic mobility,50898
cryoprotective,50898
Easter,50898
Spontaneous alternation,50898
Charophytes,50898
root planing,50898
genome screen,50898
anorectal canal,50898
ozonide,50898
FLT-1,50898
asulam,50898
valerian,50898
trichothiodystrophy,50898
A48,50898
Palpation,50898
cephalo-pelvic disproportion,50898
vertical zonation,50898
Fast Ethernet,50898
beta-turn,50898
Sumbawa,50898
Chemotactic,50898
isostatically,50898
neuroglycopenic,50898
breakeven,50898
Calcarenite,50898
mummification,50898
thalweg,50898
illitic,50898
elongated octahedron,50898
Heard Island,50898
Zymography,50898
Whitsun,50898
H22,50898
norD,50898
D51,50898
steatocystoma multiplex,50898
Lavalleja,50898
Napoli,50898
Fate mapping,50898
Electrochemistry,50898
dev,50898
ketal,50898
auxostat,50898
Gangdese,50898
sodium metabisulfite,50898
Veluwemeer,50898
antibody-antigen interaction,50898
O-linked glycosylation,50898
S. japonicum,50898
antimycin A,50898
nucleus raphe dorsalis,50898
Watson-Crick base pairing,50898
modified vaccinia Ankara,50898
Liassic,50898
organocobalt,50898
Litorina Sea,50898
Saba,50898
trimethylsilyl triflate,50898
Schilling test,50898
patchouli,50898
prepuce,50898
H-l,50898
neuroleptic,50898
ROESY,50898
grain boundary,50898
P/O,50898
pediment,50898
isolated systolic hypertension,50898
aliphatics,50898
wiggle matching,50898
class II+,50898
hysteria,50898
6-OHDA,50898
fairy shrimp,50898
pulmonary shunt,50898
Octopamine,50898
Hilton,50898
magnesium oxide,50898
retinoid receptor,50898
dental papilla,50898
superresolution,50898
Homocystinuria,50898
Permian Basin,50898
Rio Grande,50898
Arion,50898
Klk4,50898
Paleolithic,50898
cold seep,50898
FLK,50898
plutonism,50898
Pliny,50898
salen complex,50898
Dydrogesterone,50898
Wilcoxon Signed Rank test,50898
hemosiderin,50898
nepheloid layer,50898
Streptocephalus,50898
drins,50898
skin ulceration,50898
Cholestyramine,50898
o-cresol,50898
film speed,50898
DRB1*03,50898
adriatic,50898
gynephilic,50898
amelogenin,50898
cytokeratin 8,50898
Parabacteroides,50898
bacterin,50898
alicyclic,50898
vias,50898
BUTA,50898
Y5,50898
ultrabasic,50898
Thomsen-Friedenreich antigen,50898
oblique-slip,50898
ORa,50898
parabrachial nucleus,50898
liver problems,50898
geranyl diphosphate,50898
intracrine,50898
cis-2-butene,50898
actinomycin-D,50898
counterregulatory hormone,50898
multipolar cells,50898
polytene,50898
UZ Gent,50898
fetal viability,50898
upa,50898
spatial cognition,50898
exr,50898
heptachlor,50898
System image,50898
carbocation,50898
tussock,50898
oolemma,50898
C31H64,50898
maleylacetoacetate,50898
lipocortin,50898
Norian,50898
tnf-alpha,50898
postsynaptic receptor,50898
reducing sugar,50898
Electron microscope,50898
polysynaptic,50898
Celastraceae,50898
vocalis muscle,50898
Reedijk,50898
Nuclear run-on,50898
catalytic chemistry,50898
apoplexy,50898
human embryonic kidney cell,50898
dip-slip faulting,50898
scrotum,50898
vinca alkaloids,50898
Matbat,50898
Anostraca,50898
carboxyl terminus,50898
Clonazepam,50898
stern,50898
Oxymetazoline,50898
galactosemia,50898
anti-asthmatic,50898
Sveconorwegian orogeny,50898
dihydralazine,50898
Juniperus communis,50898
cystatin A,50898
xylometazoline,50898
pycnocline,50898
sio,50898
divergent evolution,50898
5' flanking region,50898
Bornyl acetate,50898
HLA-DP,50898
labioscrotal swellings,50898
active channel,50898
Q waves,50898
Achillaea,50898
Diflubenzuron,50898
copper center,50898
beta-sandwich,50898
Humatrope,50898
excretory system,50898
varicose,50898
catabolite,50898
bytecode,50898
HEXA,50898
ACON,50898
PHP,50898
N9,50898
Oxfordian,50898
norbinaltorphimine,50898
Plasma renin activity,50898
Ardennes,50898
TBTU,50898
CD3-zeta,50898
synthetic polymer,50898
chemosensitivity assay,50898
oxidizer,50898
contractional tectonics,50898
lutropin,50898
Indian plate,50898
tooth pulp,50898
geodynamics,50898
Alpine divide,50898
lupeol,50898
transmembrane alpha-helix,50898
Endonuclease,50898
elimination reaction,50898
R12,50898
dioritic,50898
GHSA,50898
somatic recombination,50898
Vera,50898
bz2,50898
organoselenium compound,50898
inferior petrosal sinus,50898
The helix,50898
tenascin-c,50898
easterly winds,50898
Receptor Modulator,50898
repacking,50898
Ototoxicity,50898
ringed seal,50898
hormone response element,50898
arabidopsis,50898
Long Valley,50898
MHC Class II,50898
enthalpy-entropy compensation,50898
unwound,50898
ophiolitic,50898
sand sheet,50898
West Sumatra,50898
barrier contraceptive,50898
mercuric acetate,50898
FC receptor,50898
Curr Opin Neurol,50898
low-energy electron diffraction,50898
Blue collar,66389
chaos theory,50898
Venography,50898
video-assisted thoracoscopic surgery,50898
condensin,50898
Leonie Island,50898
Bioethics,50898
farnesyl transferase,50898
quadric,50898
abdominal aneurysms,50898
B-10,50898
Deschampsia antarctica,50898
pulmonary infiltrate,50898
clitoroplasty,50898
Type II diabetes mellitus,50898
Lesvos,50898
drug detoxification,50898
Psychological Reports,50898
oyster mushroom,50898
trichloroethylene,50898
eccrine,50898
Carcinogenesis,50898
medialization thyroplasty,50898
daughter product,50898
National Housing Bank,50898
Ugandese,50898
slippery sequence,50898
falsetto,50898
Antabuse,50898
organophosphates,50898
temperate region,50898
vena azygos,50898
thermal mass,50898
facial symmetry,50898
Marginal cost,50898
diversifiable,50898
Shakhmatov,50898
Metrosideros,50898
S-matrix,50898
nail dystrophy,50898
Flowmeter,50898
state-owned enterprise,50898
mark-release-recapture,50898
Poa annua,50898
Barra,50898
adenosinetriphosphatase,50898
dodecahedral,50898
DIRAC,50898
Latreille,50898
Alpine belt,50898
work-to-rule,50898
Biomedical technology,50898
concurrent sentence,50898
KKR,50898
mediodorsal thalamic nucleus,50898
carpool,50898
Havana,50898
glaciology,50898
cellular adhesion molecules,50898
NPK,50898
JRT,50898
dimethylamine,50898
United Nations Protection Force,50898
CMOS,50898
mitozolomide,50898
simple extension,50898
neuroreceptor,50898
rheumatoid vasculitis,50898
ethyl carbamate,50898
social accounting matrix,50898
Stimulated emission,50898
vindoline,50898
guppy,50898
Ethinyl estradiol,50898
cardenolides,50898
didemnin B,50898
Time evolution,50898
high-density turbidity currents,50898
medial geniculate nucleus,50898
methylmagnesium chloride,50898
VCS,50898
wheat germ agglutinin,50898
ACCS,50898
psychiatric drug,50898
Lactulose,50898
posterior visual pathways,50898
pythio,50898
rocksalt,50898
Perner,50898
anthropometrical studies,50898
New Mexico,50898
qi,50898
coordinate space,50898
jack bean,50898
bivoltine,50898
Z-plasty,50898
cuvette,50898
Sup35p,50898
GaN,50898
differentiation operator,50898
Low Birth Weight,50898
National Adult Reading Test,50898
periodontal attachment,50898
flux pinning,50898
3-hydroxybutyric acid,50898
beta-distributed,50898
ambivalent sexism,50898
spastic hemiplegia,50898
large eddy simulation,50898
T-18,50898
period-doubling cascade,50898
polarizable continuum model,50898
Banaji,50898
radiographic films,50898
Desarguesian plane,50898
Schlenk equilibrium,50898
hyperbolic fixed point,50898
Eccles,50898
taxotere,50898
hake,50898
Sauromatum,50898
ballpoint pen,50898
Nevanlinna-Pick interpolation,50898
glycal,50898
YBCO,50898
projective geometries,50898
avoidant personality disorder,50898
scattered space,50898
heterocyclic amine,50898
hexadentate ligand,50898
T-11,50898
Knaster,50898
Labview,50898
isoserine,50898
Probability distribution,50898
uch,50898
TBP,50898
salt dome,50898
Diervillaceae,50898
Kasauli,50898
Enantiomer,50898
Chloroflexus aurantiacus,50898
aminoalcohol,50898
probability amplitude,50898
"hexahydro-1,3,5-trinitro-1,3,5-triazine",50898
greenhouse warming,50898
FAM,50898
gospel,50898
skeletal model,50898
abdominal wall defect,50898
Robusta,50898
asynchronous transfer mode,50898
ethanolamine phosphate,50898
Monterey,50898
phase plane,50898
15N,50898
forehead lift,50898
Hormone therapy,50898
Servigliano,50898
implantable loop recorder,50898
indolizidine,50898
Whig history,50898
Motor unit,50898
River Maas,50898
Hvidovre,50898
normal school,50898
Vilm,50898
Mid-Atlantic Ridge,50898
cross-fostering,50898
"Thomson, W.",50898
emery,50898
Child Line,50898
Atacora,50898
cobalt(ii) acetate,50898
1996 presidential elections,50898
ermine moth,50898
Rhodobium,50898
melanosome,50898
Y101,50898
Lonicera xylosteum,50898
top quality,50898
RBI,50898
Haemaccel,50898
40Ar,50898
diastereoisomer,50898
hepatic protein synthesis,50898
ACVR1,50898
sulfhydryls,50898
type 58,50898
heterozygote advantage,50898
flunarizine,50898
nitroreductase,50898
cdc25A,50898
Zechstein,50898
Activin,50898
nephrotoxin,50898
sperm viability,50898
stopped flow,50898
badland,50898
Hypernatremia,50898
perivitelline space,50898
Aflatoxin B1,50898
Eeva,50898
Limnanthes douglasii,50898
These waters,50898
piscine,50898
IIR,50898
Acidovorax,50898
epidermal permeability barrier,50898
phosphoramidate,50898
Cambrian explosion,50898
dark reaction,50898
Lesser Antilles,50898
CNNC,50898
Rhodoferax,50898
dopaminergic cell groups,50898
faecal impaction,50898
behavioral plasticity,50898
type 45,50898
sulfate conjugation,50898
chimerized,50898
desert locust,50898
E16,50898
Variscan orogeny,50898
Odontoblasts,50898
mimosine,50898
promonocytes,50898
pia mater,50898
Bronchopulmonary dysplasia,50898
conjunctival sac,50898
carbothermic reduction,50898
early stage cancer,50898
levator scapulae,50898
harbour seal,50898
thioanisole,50898
Lichen planus,50898
deoxyribonucleoside,50898
substrate adhesion molecules,50898
LB6,50898
Acidosis,50898
datum,50898
Cape Cod Bay,50898
JDK 1.2,50898
mcl-1,50898
fas ligand,50898
translational elongation,50898
microscopic reversibility,50898
hyaline cartilage,50898
2-hydroxybiphenyl,50898
impact structure,50898
obsessive-compulsive personality disorder,50898
SR1,50898
Metamemory,50898
scotoma,50898
Foreign direct investment (FDI),50898
Comprehensive System,50898
Buckling,50898
The Women,50898
Dukes classification,50898
stepper,50898
ISO 5725,50898
rotation flap,50898
inferior colliculus,50898
radiation cancer,50898
PBMS,50898
Cyanamide,50898
Malays,50898
backswimmer,50898
absolute time,50898
synchronic analysis,50898
modal voice,50898
one-compartment kinetics,50898
six-lobed,50898
cyclobutene,50898
elder abuse,50898
axial patterning,50898
Trk receptor,50898
ASCL2,50898
ADEOS-1,50898
homonuclear diatomic molecules,50898
ectodermal dysplasias,50898
Limpopo Belt,50898
dithiocarbamate,50898
Atlantic ridge,50898
Okazaki fragments,50898
standing high jump,50898
propylene oxide,50898
adolescent sexual behavior,50898
Celtis Australis,50898
market failure,50898
Nutt.,50898
risk pool,50898
anaesthesiological,50898
geomagnetic secular variation,50898
Pontoise,50898
az,50898
skeletonization,50898
impedance parameters,50898
Bretagne,50898
Pleurotus,50898
G Protein-Coupled Receptor,50898
Kuratowski,50898
Hausman,50898
Corophiidae,50898
p-adic analysis,50898
DSM-IV Dissociative Disorders,50898
nickelate,50898
SCID-D,50898
landing performance,50898
SODAR,50898
IMS Health,50898
Abelian group,50898
hydraulics,50898
level set,50898
holistic processing,50898
Italo-Romance,50898
1883 eruption,50898
simultaneous perturbation stochastic approximation,50898
The semantics,50898
fluorodopa,50898
tetraloop,50898
AlAs,50898
Kaoping,50898
arytenoid,50898
molecular chirality,50898
erythroplasia,50898
modal split,50898
Mannitol,50898
f.sp.,50898
common sole,50898
single strand conformation polymorphism,50898
relational algebra,50898
isotonic contraction,50898
Teff,50898
policy iteration,50898
Investment Theory,50898
Pierre Robin sequence,50898
S22,50898
East Asia Community,50898
Microwave Limb Sounder,50898
cautery,50898
mucoperiosteum,50898
Heisenberg algebra,50898
Dorsally,50898
The remains,50898
charging infrastructure,50898
Anthraquinones,50898
quinolines,50898
compomers,50898
Heteroscedastic,50898
Major Histocompatibility Complex (MHC),50898
komatiite,50898
Kurunegala district,50898
250 mm,50898
nmr,50898
fontanelle,50898
Indium-111,50898
cytochrome b6f complex,50898
amyloplasts,50898
Confluent,50898
Sexually Transmitted Disease,50898
oestrone,50898
Aubrives,50898
linear transport theory,50898
Late Oligocene,50898
lipid peroxides,50898
permissive temperature,50898
passive transfer,50898
analytic manifold,50898
Bone marrow failure,50898
inference engine,50898
stockout,50898
B. pubescens,50898
S-100 protein,50898
cerebral veins,50898
Erlang formula,50898
Serum iron,50898
"Allison, D",50898
Sonicaid,50898
angle light,50898
Brome,50898
Phytophthora cinnamomi,50898
collateral sulcus,50898
episodic knowledge,50898
optical resonator,50898
Gemzar,50898
hydrocortisone-17-butyrate,50898
Annelida,50898
Oopterus,50898
ELn,50898
hyperspherical coordinates,50898
tylosin,50898
organic conductor,50898
Montmort,50898
eigenbasis,50898
d-penicillamine,50898
Brain biopsy,50898
Jesus Christ,50898
cumulus cell,50898
paracolic gutters,50898
substantia nigra pars reticulata,50898
indirect pathway.,50898
Taylor Creek,50898
codel,50898
salmonids,50898
BmI-1,50898
Cilengitide,50898
methylguanine,50898
tonalitic,50898
IL-11,50898
Radiographically,50898
unmineralized,50898
region-growing,50898
Canary hotspot,50898
gonadotrophs,50898
millijoules,50898
IDEX,50898
WMO,50898
lagging strand,50898
Dyslipidemia,50898
robust estimator,50898
kernel estimation,50898
shell-model,50898
discrete time Markov chain,50898
Influenza B virus,50898
MNNG,50898
proton radius puzzle,50898
Greenland Ice Sheet Project,50898
Sumbar,50898
INADEQUATE,50898
guar gum,50898
hemilaminectomy,50898
posterior cricoarytenoid muscle,50898
Situ,50898
Z-100,50898
Task parallelism,50898
Droop quota,50898
data cluster,50898
turbine,50898
IP3R,50898
lattice energy,50898
metavolcanic,50898
flicker noise,50898
selective growth medium,50898
Dimethylsulfoniopropionate,50898
scalar products,50898
Lichenes,50898
Cauchy-Riemann equations,50898
iotation,50898
peltate,50898
Essential Drug,50898
long path,50898
entropic contributions,50898
knowledge policy,50898
digitiser,50898
helix-loop-helix,50898
liver tumour,50898
volcanic margins,50898
polybenzimidazole,50898
balanced translocation,50898
Sassenheim,50898
Dimethylamine,50898
Max-Planck-Institute,50898
symmetric response,50898
gingival margins,50898
Markovian process,50898
porphyrazine,50898
Bahr el Ghazal,50898
Vaucheria,50898
strange condition,50898
StaRT,50898
Sickle cell disease (SCD),50898
activated charcoal,50898
Kuenen,50898
capacitance probe,50898
rhetor,50898
chemotherapeutic regimen,50898
schwannoma,50898
PLoS One,50898
Carex arenaria,50898
Native PAGE,50898
Luebeck,50898
arbitrage-free,50898
homotrimer,50898
"1,2-diaminocyclohexane",50898
immunoglobulin E antibodies,50898
redescending,50898
featural,50898
Narcissus,50898
LiAlH4,50898
BTV,50898
MRIA,50898
Poecilia reticulata,50898
Wye,50898
hemiparasitic,50898
dinitro-ortho-cresol,50898
Gantz,50898
diethylzinc,50898
duodenal atresia,50898
greater auricular nerve,50898
bis(benzonitrile)palladium dichloride,50898
Fleurs,50898
monogamic,50898
victim support,50898
SEACO,50898
light wave,50898
Aplysia fasciata,50898
tax credit,50898
Supreme Court,50898
computer algebra system,50898
Boltzmann factor,50898
subclinical infection,50898
GDNF family,50898
posterior inferior cerebellar artery,50898
point estimation,50898
sparger,50898
robust statistics,50898
Panoramio,50898
scripting language,50898
chlorosome,50898
Cuernavaca,50898
Bolinao,50898
Givet,50898
BiCMOS,50898
Carboxylesterase,50898
Prohibition,50898
Krakatau,50898
E2F2,50898
thermophile,50898
Mossbauer Spectroscopy,50898
sparse approximation,50898
force play,50898
SAA2,50898
variable-range hopping,50898
photic stimulation,50898
Endangered Species Act,50898
Hewlett Packard,50898
numerical taxonomy,50898
Elater,50898
ruthenium tetroxide,50898
Metrosideros robusta,50898
Artificial bone,50898
varicella-zoster,50898
interglaciation,50898
specific conductivity,50898
sire,50898
ampholytes,50898
lobata,50898
moving windows,50898
Tyrolean Iceman,50898
fibration,50898
remote procedure call,50898
Single-photon emission computed tomography (SPECT),50898
apical foramen,50898
infauna,50898
cube root,50898
conditional variance,50898
Core binding factor,50898
Fourier transform spectroscopy,50898
semitendinosus muscle,50898
beclomethasone dipropionate,50898
glucopyranoside,50898
subsumption,50898
CP3,50898
Lactose,50898
zircon geochronology,50898
trade diversion,50898
transtensive,50898
Poliovirus,50898
spring tide,50898
supremum norm,50898
orthopedic surgeon,50898
signed measure,50898
3-hydroxybenzoate,50898
parametrium,50898
outstrip,50898
presynaptic inhibition,50898
Chromosome 6,50898
southern islands,50898
homopolysaccharide,50898
VCO,50898
cell membrane transport,50898
type MS,50898
tropane alkaloids,50898
renin angiotensin system,50898
Transition Zone,50898
Data parallelism,50898
sight loss,50898
linamarin,50898
UV-VIS absorbance,50898
Current Biology,50898
NetheRlands,50898
aminoacyl-tRNA,50898
femoral triangle,50898
machine tool,50898
Mokken Scale,50898
BuLi,50898
Nasogastric tube,50898
potentiometry,50898
immunoglobulin domain,50898
plough,50898
Archimedes' principle,50898
Hillebrand,50898
hemiaminal,50898
similac,50898
matter management,50898
unitary transformation,50898
The younger,50898
Benzaldehyde,50898
Petroleos Mexicanos,50898
yukI,50898
intrinsic safety,50898
reflectometer,50898
N-acetyl-galactosamine,50898
phase conjugation,50898
Elaphe,50898
prebound,50898
Segamat District,50898
emergency evacuation,50898
Edelbrock,50898
fluvial landforms,50898
Colles' fracture,50898
prospective memory,50898
bacteriolysis,50898
diagnostic x-ray,50898
skyline matrix,50898
spatial databases,50898
Turkmenistan,50898
peroneal artery,50898
Vesamicol,50898
Levant,50898
Pulsed field gradient,50898
Tupinambis,50898
Nether lands,50898
autopoietic system,50898
antarctic hairgrass,50898
Rockall trough,50898
dermatomes,50898
polarisability,50898
suction cup,50898
vulcanized,50898
variable decelerations,50898
Sup45p,50898
Electrical current,50898
fluid catalytic cracking,50898
emotional bias,50898
physical anthropology,50898
aggregation number,50898
dizocilpine,50898
Fatou set,50898
disulfonate,50898
"1,2-dihydroxybenzene",50898
DKH,50898
gamma aminobutyric acid,50898
jellium,50898
sonograms,50898
2000 parliamentary elections,50898
wackestone,50898
washboard,50898
diffusion limited aggregation,50898
Rubia,50898
isosorbide,50898
Sir Winston Churchill,50898
pink noise,50898
bottleneck link,50898
high vowel,50898
chlorinated hydrocarbons,50898
Scipy,50898
aln,50898
Serb,50898
ridge push,50898
micropropagation,50898
HLA-B7,50898
Oral hygiene,50898
high marsh,50898
New town,50898
Collimator,50898
PFI,50898
N-nitrosodimethylamine,50898
binary vector,50898
DB5,50898
nonionic surfactant,50898
Epigenomics,50898
peak ring,50898
Atriplex portulacoides,50898
concerted reaction,50898
Xanthophyceae,50898
LiOH,50898
Baltic herring,50898
secondary treatment,50898
periodontal charting,50898
Photinus pyralis,50898
micro-credit,50898
Araneae,50898
Muscle contraction,50898
linamarase,50898
community matrix,50898
N-terminal telopeptide,50898
Lansoprazole,50898
Cytochrome b5,50898
Proc Natl Acad Sci USA,50898
AIA,50898
Helena,50898
Mangaia,50898
Hyperextension,50898
carpool lane,50898
Bergell,50898
ethno-national,50898
Levodopa,50898
nerve centre,50898
phagocytic cell,50898
popliteal artery,50898
cementoenamel junction,50898
hepatic coma,50898
methylcyclopentadiene,50898
sodium dodecylbenzene sulfonate,50898
E20,50898
continuous wave Doppler,50898
Sabinene,50898
Dianthus deltoides,50898
Iodophenpropit,50898
co-operative breeding,50898
glycosylase,50898
Standardbred,50898
batch reactor,50898
High Flux Reactor,50898
spurious correlation,50898
stagnation point,50898
radiolytically,50898
vasa recta,50898
neurometrics,50898
Spree,50898
Bylina,50898
cricothyroid approximation,50898
lotaustralin,50898
Duru,50898
magic angle,50898
triple product,50898
enlarged lymph nodes,50898
p-toluic acid,50898
ETT,50898
basin modelling,50898
Prazosin,50898
iodized salt,50898
uniformly continuous,50898
ferric citrate,50898
nanoliter,50898
Neupogen,50898
shin splints,50898
Matrix Gla Protein,50898
esthesiometer,50898
radical constructivism,50898
Hydrophobicity,50898
topologically indistinguishable,50898
Rabobank,50898
Sexism,50898
Nitromethane,50898
Ocular dominance,50898
Cerebro,50898
dynamic forces,50898
Euonymus,50898
Tracheal rings,50898
mid-brain,50898
impairment rating,50898
critical angle,50898
Heynh.,50898
IQ-points,50898
tandem mass spectra,50898
NaBH3CN,50898
open site,50898
5-HT2c,50898
electron capture detector,50898
The specialists,50898
Croat,50898
Adduction,50898
tp,50898
totally synthetic,50898
Palau,50898
Pemex,50898
arch form,50898
hard skin,50898
Fly ash,50898
H channel,50898
fin rot,50898
Electric stimulation,50898
"Maricopa, Arizona",50898
concurrent object-oriented programming,50898
zeroth order approximation,50898
stripper,50898
cycloheptatriene,50898
Spartina,50898
torr,50898
mainframe computer,50898
cold cream,50898
phytotherapy,50898
3-methoxy-4-hydroxyphenylglycol,50898
thermistor,50898
canthal,50898
ISSN,50898
cephalometry,50898
Johor,50898
Myosin heavy chain,50898
Lyapunov function,50898
Buffer zone,50898
malt,50898
D-Arabinose,50898
Sorghum bicolor,50898
Hooge,50898
polyglycolide,50898
"Redmond, Washington",50898
Japanese encephalitis,50898
calcium phosphates,50898
data abstraction,50898
emulsifying agent,50898
strong mixing,50898
Mineral oil,50898
underlying representation,50898
diophantine problem,50898
Choco,50898
adatoms,50898
cyclohexylamine,50898
Wien filter,50898
Marnes-La-Coquette,50898
fast Fourier transform,50898
Insertional mutagenesis,50898
cistron,50898
alaryngeal,50898
ETAU,50898
forcer,50898
orthotic devices,50898
Compression stockings,50898
lens cortex,50898
woodland edge,50898
reference plane,50898
polypyrimidine tract,50898
Yukawa model,50898
porphyries,50898
Mercol,50898
rod cells,50898
electronic article surveillance,50898
native gel electrophoresis,50898
telemeter,50898
whelk,50898
Schwarz criterion,50898
allantois,50898
guanylate,50898
cytochrome b5,50898
Elder abuse,50898
Heterogeneities,50898
Ussel,50898
procyclicality,50898
toxic metal,50898
R4600,50898
Bcl-xL,50898
miconazole,50898
nettle,50898
rational actor model,50898
human measurements,50898
Gora,50898
Como,50898
Barnstable Harbor,50898
A-weighted,50898
epigenomics,50898
dapsone,50898
Sulfite,50898
Rubia peregrina,50898
Triclinic,50898
amyloid A,50898
revegetation,50898
Glutathione-S-transferase,50898
IMRI,50898
Seventeen days,50898
Salicylhydroxamic acid,50898
sclerotic fibroma,50898
Pioneer Venus Orbiter,50898
Korth,50898
pregnenolone,50898
mediodorsal nucleus,50898
Phytohaemagglutinin,50898
Total suspended solids,50898
harbor porpoise,50898
bHLH,50898
Thymus pulegioides,50898
spar,50898
Paragangliomas,50898
terminal elements,50898
Disaccharide,50898
keratin 6,50898
precautionary saving,50898
complex oxide,50898
match group,50898
Great Escarpment,50898
Rayleigh number,50898
midgut volvulus,50898
2 seconds,50898
Bing Shrinking,50898
Luteinizing hormone,50898
gait disturbance,50898
retinitis pigmentosa GTPase regulator,50898
Complex 14,50898
Periventricular leukomalacia,50898
Genetic determinism,50898
collecting duct,50898
deoxyribonucleotide,50898
near-far,50898
dinoterb,50898
hemiparasitic plant,50898
Psychotic depression,50898
Scotian Shelf,50898
Crataegus monogyna,50898
L9,50898
flavin-containing monooxygenase,50898
Mileto,50898
Ensemble averaging,50898
riebeckite,50898
ovarian neoplasms,50898
ABX,50898
Adrenergic,50898
macerating,50898
polysyndactyly,50898
Cumberland Bay,50898
tetrahydrofurans,50898
Talktalk,50898
yellow fever virus,50898
mull,50898
Radiolabelled,50898
reverse faulting,50898
shuttle vector,50898
iron-binding proteins,50898
Q band,50898
vesicular acetylcholine transporter,50898
cummingtonite,50898
free-flow electrophoresis,50898
calcium carbimide,50898
NART,50898
ribose-5-phosphate,50898
Psychiatric hospital,50898
septated,50898
multifidus,50898
herniated disk,50898
polygynous,50898
Revealed Preference,50898
internal vertebral venous plexuses,50898
Perrault,50898
3' UTRs,50898
curette,50898
Sideband,50898
RNAse protection assay,50898
metal detector,50898
desilylation,50898
steady-state condition,50898
forceps delivery,50898
x-coordinate,50898
Streptomyces pristinaespiralis,50898
metabolic signals,50898
mixing length,50898
daily operation,50898
conditioned emotional response,50898
urogenital sinus,50898
intermittent hemodialysis,50898
EMV,50898
haemocyanin,50898
Dante,50898
stereo microscope,50898
phocid,50898
AMM,50898
homologated,50898
Gamma distribution,50898
IgL,50898
Neodymium isotope,50898
transgressional,50898
ABAP,50898
chemical thermodynamics,50898
Silicon Graphics,50898
retinacular,50898
exfoliative cytology,50898
suevite,50898
anti-cardiolipin,50898
phosphinothricin,50898
Ifs,50898
Diffusion coefficient,50898
Marginal costs,50898
93 days,50898
Multiple correlation,50898
amphoteric,50898
gamma-terpinene,50898
Stokes-Einstein,50898
Saos-2 cells,50898
Google Street View,50898
human fetal development,50898
Chirality,50898
multiplexer,50898
muscle spasm,50898
coxae,50898
prosobranch,50898
point charge,50898
environmental survey,50898
Luochuan,50898
Barbados,50898
myeloblastic leukemia,50898
greenstones,50898
Elphidium,50898
Stuiver,50898
transcutaneous electric nerve stimulation,50898
Borel set,50898
Lower Eocene,50898
radioligand assay,50898
Xifeng,50898
velcro,50898
S18,50898
Q-branch,50898
palliative therapy,50898
Slc22a3,50898
Malignant hyperthermia,50898
oestrous,50898
Canonical correlation analysis,50898
Amelogenin,50898
Passaging,50898
Altona,50898
sensorineural hearing impairment,50898
Ribavirin,50898
Charleville,50898
calcium-45,50898
Sudbury,50898
bioconversion,50898
nival,50898
ice rafting,50898
cyclic photophosphorylation,50898
INO,50898
Vacha,50898
capsazepine,50898
Shamva,50898
Psychotropic drug,50898
Kirchberg,50898
PFK1,50898
CANadian,50898
losing balance,50898
Standard addition,50898
core country,50898
Monosaccharide,50898
structural geology,50898
Neuropathic pain,50898
c-KIT,50898
random sequential adsorption,50898
fiber optic,50898
Froude number,50898
ethylketocyclazocine,50898
Bruce protocol,50898
M32,50898
Tyrol,50898
"1,1-dichloroethane",50898
yarrow,50898
2-phenylphenol,50898
Dutch municipal elections,50898
open biopsy,50898
Quinqueloculina,50898
chemically interact,50898
emulsifiers,50898
Sustainable growth,50898
cyanidin 3-glucoside,50898
chloroethylclonidine,50898
papillary thyroid cancer,50898
standpipe,50898
internal jugular,50898
Divina Commedia,50898
"Mountain View, CA",50898
saxifraga,50898
disordered speech,50898
anthesis,50898
Warrawoona,50898
calcarine fissure,50898
Type II error,50898
medial lemniscus,50898
Pram,50898
metabolic clearance rate,50898
European Monetary Union,50898
Structural stability,50898
Autostop,50898
DEJ,50898
Increased heart rate,50898
nes,50898
Mohr-Coulomb,50898
Teicoplanin,50898
acetoacetyl-CoA,50898
isovaline,50898
phosphopantetheine,50898
caput,50898
Opioid peptide,50898
dodecane,50898
vitreous chamber,50898
Oil palm,50898
International Affective Picture System,50898
antiarch,50898
Franz Kugler,68754
Cyclin-dependent kinase 2,50898
Arthroscopic surgery,50898
soil survey,50898
investor relations,50898
Depth perception,50898
parallel parking,50898
turbellarian,50898
fluorocholine,50898
Vogue,50898
S-Net,50898
Public housing,50898
septic arthritis,50898
dichloropropene,50898
Microspheres,50898
NGC 188,50898
OCDs,50898
Andean countries,50898
Coronary circulation,50898
Gordon Tullock,50898
cleptoparasitic,50898
Laterality,50898
Diamine,50898
photon-counting,50898
abdominal migraine,50898
National Election Studies,50898
Regulatory mode theory,50898
domain decomposition methods,50898
time inconsistency,50898
Bococizumab,50898
asset-based welfare,50898
social cue,50898
Hendrik Antoon Lorentz,50898
Rio Frio,50898
homopteran,50898
borough,50898
Pediatric oncology,50898
Lymphedema,50898
professional baseball,50898
projective variety,50898
Honjo,50898
NOD-like receptors (NLRs),50898
step-growth,50898
Diabetic nephropathy,50898
electromagnetic radiation,50898
bank regulation,50898
Organizational justice,50898
Refractive error,50898
Agenda 21,50898
irreducibly complex,50898
nT1,68804
Annexin A5,50898
Laser speckle,50898
Resonance enhanced multiphoton ionization,50898
Retinitis pigmentosa,50898
polynomially convex hull,50898
Pearl River Delta,50898
digital health,50898
diplomat,50898
hypervitaminosis A,50898
CT pulmonary angiography,50898
interleukin-6 receptor,50898
Saba Bank,50898
Excimer laser,50898
metamaterials,50898
Extended-release,50898
Green Fluorescent Protein (GFP),50898
Gastroesophageal reflux,50898
Coronary perfusion pressure,50898
minor key,50898
Polyphenol,50898
green marketing,50898
harshness,50898
Globicephala,50898
molecular tweezers,50898
Implantable cardioverter-defibrillator,50898
UN Security Council,50898
UK sport,50898
Reproducibility Project,50898
Ocean acidification,50898
interpreting services,50898
Gated communities,50898
Vorapaxar,50898
multichannel retailer,50898
nootropic,50898
job demands-resources model,50898
preferential attachment,50898
otolaryngology,50898
Chemerin,50898
fish meal,50898
adnate,50898
major disaster,50898
operations management,50898
Stereotype,50898
firewalls,50898
Peabody,50898
main task,50898
Coxeter group,50898
cryoprecipitate,50898
cognitive-psychological,50898
mobile electronic device,50898
Mekong Delta,50898
Photoemission,50898
Dark matter,50898
Melitz,50898
SAs,50898
Karussell,50898
medical abortion,50898
Dibenzofuran,50898
naturalization,50898
BIPM,50898
Lindblad master equation,50898
regionalist,50898
co-ownership,50898
Matrix theory,50898
Intussusception,50898
approval voting,68870
Synesthesia,50898
Cardiac arrest,50898
Belgian regional elections,68873
Aleksandar,50898
lorry,50898
Gutian,50898
medical complication,50898
Statistical process control (SPC),50898
Two-dimensional gas,50898
divided cities,50898
physical adsorption,50898
eusocial,50898
graphical processing unit,50898
Botulinum toxin,50898
Nanocomposite,50898
Meiosis,50898
data migration,50898
three-valued logic,50898
interplanetary network,50898
Lachlan,50898
Synacthen,50898
group velocity,50898
separation science,50898
Ptch1,50898
migrating bird,50898
multipartite entanglement,50898
Cobalt-57,50898
Water security,50898
open shop,50898
genetic population structure,50898
Visegrad countries,50898
meningococcaemia,50898
Osteogenesis imperfecta,50898
Guanethidine,50898
gastro-esophageal reflux disease,50898
Grote Markt,50898
Immunolabeling,50898
Plasminogen activator inhibitor-1,50898
coca,50898
Clara bog,50898
Metabolic engineering,50898
Mobile learning,50898
protein L,50898
organocatalysis,50898
Jaba,50898
Eugenol,50898
Pain Catastrophizing Scale,50898
topological K-theory,50898
Verhoeff,50898
American exceptionalism,50898
Algol-type,50898
Hulsker,50898
expectancy violation theory,50898
optimality criterion,50898
Gambling disorder,50898
tannery,50898
counterfactual thinking,50898
Soda lakes,50898
danaparoid,50898
Poly(ADP-ribose) polymerase,50898
Donald Schon,50898
bag-of-words,50898
RNase E,50898
terracette,50898
Inguinal hernia,50898
entity resolution,50898
Drug delivery,50898
specialist species,50898
Root system,50898
Peripheral nerve stimulation,50898
GRB 080319B,50898
[2.2]paracyclophane,50898
microlens,50898
Corporate social responsibility (CSR),50898
Opitz,50898
Kiyotaki,50898
hot Jupiter,50898
Human T-Lymphotropic Virus,50898
Hypopharynx,50898
John Venn,50898
Hematological malignancies,50898
CGIAR,50898
TADs,50898
Rozendaal,50898
LaF3,50898
additive group,50898
Occupational medicine,50898
Shannon capacity,50898
Lymphangiogenesis,50898
GRB 990123,50898
Taliglucerase alfa,50898
Cocaine addiction,50898
OBC,50898
pitch contour,50898
classic galactosemia,50898
Phage display,50898
extensor retinaculum,50898
Per-oral endoscopic myotomy,50898
Myotonic dystrophy,50898
Metabotropic glutamate receptor 5,50898
Nutritional supplements,50898
Gold nanoparticle,50898
Exaggeration,50898
Cumbersome,50898
euroscepticism,50898
media activism,50898
irregular variable,50898
Percolation theory,50898
dual coding theory,50898
dimorphic fungi,50898
Urban planning,50898
full force,68982
tidal disruption event,50898
Tamil,50898
Sexual arousal,50898
Cassiopeia,50898
Les Houches,50898
West Germanic languages,50898
valve-sparing aortic root replacement,50898
Childhood absence epilepsy,50898
Ionian Sea,50898
Yakima,68992
Pygmies,50898
Major depressive episode,50898
Photo sharing,50898
inquiry-based curriculum,68996
Welfare State,50898
D-cycloserine,50898
astronomical survey,50898
Saba Mahmood,50898
Osteopathia striata,50898
Global cities,50898
oligopolies,50898
Mammal,50898
JSE,50898
imidazothiazole,50898
Bastille,50898
Avoidance behavior,50898
algebraic connectivity,69009
toll-like receptor 9,50898
GeoSentinel,50898
Viewpoints,69012
Gonorrhoea,50898
intuit,50898
paperless office,69015
Donald MacAlister,50898
LaAlO3,50898
mobile gaming,50898
Latah,50898
familyhood,50898
sharing economy,50898
Ground Zero,50898
Alopecia areata,50898
dermatophyte,50898
modus tollens,50898
intraoperative monitoring,50898
intertwiner,50898
Compression systems,50898
Sickle cell anaemia,50898
text corpora,50898
discrete group,50898
integral domain,50898
Ypsilon,50898
European urology,50898
scanning laser polarimetry,50898
outflow channels,50898
Cellini,50898
Kernicterus,50898
Machine perfusion,50898
Pampanga,50898
marginal distribution,50898
Telaprevir,50898
Water scarcity,50898
Heroin-assisted treatment,50898
car dependency,50898
Abdominal surgery,50898
Neuraminidase inhibitors,50898
Sickle cell disease,50898
siliceous sponges,50898
HLA-B57,50898
spirapril,50898
odontocete,50898
Beat deafness,50898
Real option,50898
Bamenda,50898
Euchromatin,50898
Security camera,50898
Bicuspid aortic valve,50898
Reinforcement learning,50898
Viral infection,50898
cyberbullying,50898
publicly funded care,50898
age stereotypes,50898
Clomifene citrate,50898
ocrelizumab,50898
Ni3Al,50898
Emergency medical services (EMS),50898
Surface acoustic wave,50898
Asymptotic giant branch,50898
Speelman,50898
Language documentation,50898
Marlene Dumas,50898
Albert Hirschman,50898
Yes/No,50898
EU-ETS,50898
axiological,50898
Channelisation,50898
affective events theory,50898
simultaneous game,50898
Immunoglobulin E,50898
Restriction site,50898
Edinburgh Declaration,50898
Medemblik,50898
Multiple acyl-CoA dehydrogenase deficiency,50898
REIT,50898
grapheme-color synesthesia,50898
Business process,50898
tax treaties,50898
chromosome deletion,50898
omnidirectional,50898
New Age,50898
TRIM22,50898
automaton,50898
universal language,50898
hen harrier,50898
RX J0720.4-3125,50898
proof procedure,50898
jurist,50898
electronic fetal monitoring,50898
CRSP,50898
visual concepts,50898
Phosphatidylcholine,50898
electronic word-of-mouth,50898
SU(6),50898
European Union (EU) law,50898
Ede,50898
autonomous driving,50898
intended model,50898
Ramsey growth model,50898
Epidermoid cysts,50898
cognitive modelling,50898
Incontinent,50898
constructed wetland,50898
core countries,50898
kwashiorkor,50898
cavefish,50898
precesses,50898
midline laparotomy,50898
Ten articles,50898
post-exertional malaise,50898
public security,50898
routing table,50898
Guo Jingjing,50898
Six Nations,50898
croton oil,50898
T-6,50898
rating sites,50898
quadrilateral space,50898
Malaise,50898
intracameral injection,50898
modifier gene,50898
advanced life support,50898
process industries,50898
warped geometry,50898
Gamification,50898
Mathworks,50898
superwind,50898
CASK,50898
autochthonic,50898
lanthanide probes,50898
Robo,50898
money market,50898
Platelet transfusion,50898
volume flow rate,50898
Wolfram Mathematica,50898
deprescribing,50898
Lecythidaceae,50898
SF2/ASF,50898
optical resolution,50898
minerotrophic,50898
functional constraint,50898
d-dimer,50898
complement component 3,50898
CM field,50898
LIPG,50898
hylomorphism,50898
inflammatory reflex,50898
cocaine intoxication,50898
HTLV-I,50898
super-resolution imaging,50898
reappropriate,50898
graduated compression stockings,50898
AMES,50898
photo sharing,50898
E2 elimination,50898
Anterior uveitis,50898
mother universe,50898
HD 209458b,50898
Leverage,50898
M. cavernosa,50898
MVE,50898
compression therapy,50898
2CH,50898
acyl-coenzyme A dehydrogenase,50898
mGR,50898
accessory nerve,50898
lithotomy position,50898
marginal profit,50898
fontanel,50898
pulpitis,50898
compression systems,50898
Queens,50898
strain-hardening,50898
Aram,50898
inferior conjunction,50898
randomized block design,50898
cecum,50898
nuclear lamina,50898
IOU,50898
Perpendicular,50898
Tacitist,50898
Geddes,50898
newspeak,50898
Mouth breathing,50898
anterior tibiofibular ligament,50898
SGR 0525-66,50898
biceps brachii muscle,50898
LDl,50898
lepton number,50898
2C-B,50898
MPEG4,50898
osteochondritis dissecans,50898
dry tropics,50898
sampling probability,50898
Su8,50898
Notre Dame,50898
endothelial lipase,50898
Rega,50898
CTNND2,50898
ATOM,50898
subquadratic time,50898
PLWHA,50898
D50,50898
wobble base pair,50898
Maxomys,50898
cerebral vasospasm,50898
Solitaire,50898
Hysteriales,50898
national blood service,50898
Tris buffer,50898
thermal field theory,50898
CHAF1A,50898
ScO2,50898
VHH,50898
alkaline earth metal,50898
Spastic paraplegia,50898
C1 domain,50898
C70,50898
losmapimod,50898
EHD,50898
lateral marginal vein,50898
numerical differentiation,50898
Gorilla gorilla,50898
sulphapyridine,50898
Bourke,50898
Streptozotocin,50898
electroencephalograph,50898
IRS4,50898
Haematuria,50898
phototroph,50898
Cre-recombinase,50898
Empyema,50898
vanguardism,50898
splenic flexure,50898
Carnegie stage,50898
Late Middle Ages,50898
corticotropin,50898
Th12,50898
PRKDC,50898
ES9,50898
Kozai-Lidov mechanism,50898
electro,50898
black tea,50898
woody plant,50898
Drake,50898
cut-free,50898
spondylocostal dysostosis,50898
tnd,50898
pari-mutuel,50898
pictogram,50898
CELI,50898
Belching,50898
stathmin,50898
quantum cloning,50898
copeptin,50898
bond enthalpy,50898
cot death,50898
intuitive reasoning,50898
symbiogenesis,50898
maximally entangled,50898
Boundary condition,50898
high-stakes testing,50898
nationalism studies,50898
vaginal photoplethysmograph,50898
Nannochloropsis,50898
Derek de Solla Price,50898
PBs,50898
dipeptidyl peptidase 4,50898
night sweat,50898
stinkhorn,50898
tamarixetin,50898
LQ1,50898
Muscle fiber,50898
Antonio de Nebrija,50898
Nuphar,50898
natural standard,50898
Urban Affairs Review,50898
conformal transformations,50898
M27,50898
Confidentiality,50898
mCherry,50898
dechlorinates,50898
coparenting,50898
format B,50898
superficial peroneal nerve,50898
LGBTIQ rights,50898
Gata6,50898
persistent hyperplastic primary vitreous,50898
SRp40,50898
pneumococcal disease,50898
ketotifen,50898
electrophysiology study,50898
bromomethane,50898
secondary poisoning,50898
chromosome 1q,50898
PBQ,50898
transonic,50898
Culprit,50898
hydrocolloids,50898
Taimyr,50898
Borreria,50898
inductive limit,50898
myeloproliferation,50898
universal set,50898
DPP6,50898
proton-pump inhibitors,50898
Marojejy Massif,50898
nuclear localization sequence,50898
body packing,50898
Muslim quarter,50898
artificial skin,50898
KCNQ5,50898
transpeptidases,50898
fast Kalman filter,50898
Tioman Island,50898
PLB1,50898
thermal paper,50898
RHCe,50898
MN12,50898
PCAS,50898
Radiographic imaging,50898
Arhopala epimuta,50898
hydro-electricity,50898
vpu,50898
Tacitus,50898
binary relation,50898
midden,50898
F20,50898
RWP,50898
logical implication,50898
RIPK1,50898
intraductal papillary mucinous neoplasm,50898
cognitive psychologist,50898
inverse-Compton,50898
alternative journalism,50898
moi,50898
Baile funk,50898
Mallory-Weiss tear,50898
SN 1994I,50898
renal dialysis,50898
vitamin D2,50898
WSOM,50898
methyldopa,50898
vegetarianism,50898
squash,50898
summer fallow,50898
Berne,50898
anarchism,50898
eggplant,50898
Palaeotropical,50898
duvet,50898
Arcturus,50898
Xenotransplantation,50898
Myeloproliferative,50898
ANOVA-simultaneous component analysis,50898
luminous blue variable,50898
contrast-induced nephropathy,50898
Smc6,50898
E30,50898
ideomotor response,50898
LMV,50898
chabazite,50898
BRG,50898
6-APB,50898
tabloid,50898
Security Council,50898
RAMP,50898
CVH,50898
Stony Brook,50898
AMPS paradox,50898
N137,50898
Thyroid cancer,50898
Torg,50898
Padina pavonica,50898
zileuton,50898
associators,50898
EHMT1,50898
steady power,50898
Pongo pygmaeus,50898
visual hierarchy,50898
placental mammals,50898
"2,4,6-trinitrophenol",50898
minute volume,50898
ARN,50898
veratridine,50898
Trendelenburg position,50898
radio frequency interference,50898
Barcode,50898
beat deafness,50898
Pulmonary regurgitation,50898
Matsubara,50898
product measure,50898
lignocaine,50898
LSG,50898
countrate,50898
gecko,50898
poly(lactic acid),50898
premarital sex,50898
alum,50898
keratosis pilaris,50898
Magdalena Valley,50898
contextual design,50898
Trex1,50898
dimensionless quantity,50898
2009 A/H1N1,50898
C language,50898
Kes,50898
aspermatogenesis,50898
Qaidam Basin,50898
sesamoid bone,50898
New approach,50898
Dysport,50898
WTX,50898
rocky shore,50898
direct system,50898
Spirometry,50898
red-giant-branch,50898
Protein G,50898
NPES,50898
melanotan II,50898
Leninist,50898
retinal pigmented epithelium,50898
observational test,50898
dihedral symmetry,50898
FCA,50898
BB84,50898
metabotropic receptor,50898
cardinal vein,50898
Chlorella pyrenoidosa,50898
mineral spring,50898
unique area,50898
minor salivary gland,50898
anismus,50898
kainate receptor,50898
NOS1AP,50898
elastic tension,50898
Palmae,50898
defeasible reasoning,50898
Lewis acidity,50898
dill,50898
multipotent progenitor,50898
Technicolor,50898
Tana river,50898
Alcock,50898
empiricists,50898
V40,50898
locative media,50898
Skagerrak,50898
L. tropica,50898
Syndesmotic screw,50898
Lonestar,50898
eugenol,50898
sieving coefficient,50898
Asplenia,50898
fluticasone/salmeterol,50898
lamellipodia,50898
ChIA-PET,50898
Deep vein thrombosis,50898
ALK4,50898
repl,50898
chromosome territory,50898
UMCG,50898
Nicotinamide,50898
concomitant drug,50898
Hsp90b1,50898
La Cocha,50898
Trident,50898
ford,50898
drying oil,50898
Kerr metric,50898
terminal singularities,50898
formae speciales,50898
probabilistic algorithm,50898
"sl(2, R)",50898
Nerve conduction velocity,50898
deprescribe,50898
echolalia,50898
Cumene hydroperoxide,50898
malolactic fermentation,50898
pancreatin,50898
S-nitrosylation,50898
esophageal disease,50898
solitary wave,50898
aMD,50898
Berylmys,50898
Alglucerase,50898
patient reported outcome,50898
mucopolysaccharide,50898
Arc/Arg3.1,50898
External beam radiotherapy,50898
CCDS,50898
Caio,50898
thermal inversion,50898
tonic receptor,50898
ONL,50898
spectral sequence,50898
GVFL,50898
camostat,50898
Dalcetrapib,50898
varespladib methyl,50898
corkscrew,50898
Optimal design,50898
tanneries,50898
The TraP,50898
NGC 346,50898
maraviroc,50898
Luminex Corporation,50898
lamin,50898
Gardasil,50898
hypopigmented,50898
violent victimization,50898
AMPS,50898
exploitation theory,50898
North China craton,50898
Clearance rate,50898
Neural tube,50898
Fel d1,50898
secularisation,50898
Aspen,50898
labrum,50898
Hemosiderin,50898
Jugular venous pressure,50898
TLR6,50898
bupropion,50898
SPO11,50898
Centaur,50898
10 L,50898
Tima,50898
Pneumocystis jiroveci pneumonia,50898
overexploited,50898
KLC1,50898
Glucagon,50898
healthy athletes,50898
bulb fields,50898
indefinite article,50898
Apolipoprotein B100,50898
Calosphaeriales,50898
Melancholic depression,50898
query language,50898
human simulation,50898
Yukon Territory,50898
Patient Reported Outcome,50898
pacifica,50898
Tacitism,50898
Lukasiewicz,50898
simple cycle,50898
facial nucleus,50898
lichen sclerosus,50898
Narcomedusae,50898
Hospital bed,50898
virial radius,50898
cgs,50898
Dendrocoelum,50898
brachyury,50898
spicule,50898
HD 93250,50898
islet transplantation,50898
APOBEC,50898
PES group,50898
zero-order kinetics,50898
Keratoconjunctivitis sicca,50898
peace education,50898
Guttiferae,50898
Weighted median,50898
pancuronium bromide,50898
physical landscape,50898
echopraxia,50898
V60,50898
Cryptococcus,50898
calcineurin inhibitor,50898
Montreal Neurological Institute,50898
HD6,50898
Usme Formation,50898
employer associations,50898
Alexandrium,50898
Ascorbate,50898
renal medulla,50898
basophil activation,50898
SPAD,50898
Polygonaceae,50898
bococizumab,50898
tibial tubercle,50898
limnetic,50898
Heart Attack,50898
stream restoration,50898
Chandra X-ray Telescope,50898
AIRE,50898
security properties,50898
ITLs,50898
deaminase,50898
bronchial circulation,50898
JVP,50898
double identity,50898
aldh1a1,50898
Ramsar site,50898
sub-aerial,50898
BABR,50898
HoSi,50898
SD 18,50898
Kempen,50898
psychogeography,50898
ubiquinone-8,50898
F-wave,50898
building science,50898
miR21,50898
polysplenia,50898
AMPT,50898
dualisms,50898
EOA,50898
idiopathic thrombocytopenic purpura,50898
anti-nationalism,50898
HDAC2,50898
strong focusing,50898
COP1,50898
membrane models,50898
coordinate geometry,50898
cardiac pacemaking,50898
Musaceae,50898
Onyx,50898
anoikis,50898
restriction digestion,50898
psychrophiles,50898
continuous group,50898
foveola,50898
18 minutes,50898
mGluR6,50898
Cosine,50898
marasmus,50898
dimethyl telluride,50898
Trachymedusae,50898
Prevotella bivia,50898
wbc,50898
oxyhaemoglobin,50898
CNGB3,50898
neural fold,50898
Slit1,50898
pubic hair,50898
Kudzu,50898
Taz,50898
AD5,50898
paranoid schizophrenia,50898
photobiotin,50898
Australia Telescope National Facility,50898
hepatocarcinoma,50898
PCSK9 inhibitor,50898
FDTD,50898
Survey Monkey,50898
carbohydrate catabolism,50898
NEtherlandS,50898
Sekong Province,50898
health system strengthening,50898
electrostriction,50898
CP-1,50898
chemical database,50898
livedo reticularis,50898
NH 3,50898
U-4,50898
SCAT,50898
Francis Vere,50898
Prolagus,50898
sexual size dimorphism,50898
allied publishers,50898
Acromicric dysplasia,50898
taliglucerase alfa,50898
NREM sleep,50898
mass drug administration,50898
gestational trophoblastic neoplasia,50898
livedo racemosa,50898
Anthomedusae,50898
Fermi bubbles,50898
pharmacogenomic,50898
CEFA,50898
M protein,50898
oxytalan,50898
celery,50898
HDAC8,50898
trichinellosis,50898
CCBE1,50898
gG-1,50898
repointing,50898
"Dialysis Clinic, Inc",50898
VX-680,50898
Rur,50898
complex form,50898
levothyroxine sodium,50898
Callitriche,50898
MSTN,50898
oligotricha,50898
undifferentiated schizophrenia,50898
Codrington Lagoon,50898
oxygen evolving complex,50898
Old City,50898
Invar,50898
tripartite motif family,50898
Symbiogenesis,50898
large deviations theory,50898
free-free absorption,50898
HLA-B*5701,50898
IGRP,50898
In treatment,50898
cholescintigraphy,50898
Anakinra,50898
noise-induced hearing loss,50898
SOCRATES,50898
Niviventer,50898
Ussing chamber,50898
18R,50898
mucous membrane,50898
benzylideneacetone,50898
Chinatown,50898
citation indices,50898
sodium valproate,50898
SNRPN,50898
cyclooctane,50898
standardized patient,50898
mental health literacy,50898
WSM,50898
B-scan ultrasonography,50898
paraventricular hypothalamic nucleus,50898
Et3N,50898
hypromellose,50898
Hillbrow,50898
corticopontine fibers,50898
silica gel,50898
E25,50898
sphygmomanometry,50898
constitutive model,50898
Yugoslav wars,50898
cyclen,50898
skewed X-inactivation,50898
snowplow,50898
error bar,50898
nasal vestibule,50898
DaT,50898
Mathieu,50898
ChemSpider,50898
glans clitoridis,50898
immunoglobulin isotypes,50898
Bafilomycin,50898
Actelion,50898
risk tolerance,50898
Bombacaceae,50898
Continental Philosophy,50898
MRND,50898
apple cultivars,50898
gp96,50898
T1R3,50898
enteric fever,50898
satrapy,50898
SCFV,50898
chard,50898
nutraceuticals,50898
P = NP,50898
Strain Theory,50898
iliofemoral,50898
AGAG,50898
crocodilian,50898
photoheterotrophic,50898
Charon,50898
Inselspital,50898
Phosphorus-31,50898
Lysozyme,50898
igapo,50898
Critical Theory,50898
Allschwil,50898
Reader,50898
The NAb,50898
Methyldopa,50898
eye chart,50898
TRPM5,50898
desvenlafaxine,50898
Mombasa,50898
light cycle,50898
WUE,50898
SFTPA1,50898
Montessori education,50898
Chaitin,50898
European Pharmacopoeia,50898
ACo,50898
black hole entropy,50898
amprenavir,50898
comultiplication,50898
WFC3,50898
asplenia,50898
BBN,50898
frame dragging,50898
JBO,50898
primary motor area,50898
non-attached,50898
Santana,50898
Milton,50898
guano,50898
Blarinella,50898
Leptomedusae,50898
PLATO,50898
Belzer,50898
Resistivity,50898
fandom,50898
DUSP1,50898
Metabolic acidosis,50898
HAS-BLED,50898
elastodynamics,50898
vestibular nuclei,50898
Sippewissett Salt Marsh,50898
Dawn,50898
Ubuntu,50898
volume rendered,50898
turbidostat,50898
IRB,50898
Antares,50898
apo B-100,50898
test particle,50898
PDE6C,50898
axillae,50898
Maine Coon,50898
histone acetyltransferase,50898
presyncope,50898
amrinone,50898
Grand Slam,50898
SETBP1,50898
Factorial,50898
secondary electrons,50898
clines,50898
polyimide film,50898
mttA,50898
uncoupling protein 1,50898
poly(A)-specific ribonuclease,50898
CD49b,50898
Vtr,50898
outer surface protein,50898
SIL1,50898
jatropha,50898
Ecotope,50898
exotic matter,50898
LT2,50898
central range,50898
sulphoxides,50898
bactericide,50898
HMRC,50898
acid-base reaction,50898
senior synonym,50898
Higgs phase,50898
methanide,50898
Foraminifera,50898
harrow,50898
protogynous,50898
social pedagogy,50898
intermediate 2,50898
rich fen,50898
attenuated familial adenomatous polyposis,50898
ApoA-I,50898
Granny Smith,50898
Flyvbjerg,50898
Organization workshop,50898
milrinone,50898
UN General Assembly,50898
inverse square law,50898
HLA-B8,50898
LS group,50898
trihexyphenidyl,50898
aurora A,50898
blip,50898
nerve block,50898
milli,50898
Dyskinesia,50898
Macrosomia,50898
SFTPA2,50898
pedunculus cerebellaris,50898
noncoordinating anion,50898
Eschweilera,50898
theobromine,50898
PHKA2,50898
Sulfinpyrazone,50898
ACYL-COA,50898
middle distillates,50898
acute bronchitis,50898
acute Hepatitis B,50898
RNF115,50898
4-hydroxybenzoic acid,50898
Limnomedusae,50898
Ligurian sea,50898
FOSL1,50898
hiatal hernias,50898
Barrington,50898
Thenar,50898
c.l.,50898
polygraphy,50898
Cape Cod,50898
quince,50898
Zeedijk,50898
Saba Island,50898
Haloferax,50898
ductuli efferentes,50898
hammer toe,50898
DEET,50898
Fedora,50898
zero-valent iron,50898
algebraic analysis,50898
NRAO,50898
rotigaptide,50898
d-type,50898
Kondoa,50898
HTLV,50898
NAB2,50898
back-bonding,50898
thiamine supplementation,50898
reaction progress kinetic analysis,50898
GAS5,50898
Sigma receptor,50898
Ketotifen,50898
Radiolabeling,50898
genipin,50898
Impala,50898
deep neural networks,50898
PCR primer,50898
colcemid,50898
Iritis,50898
propylpyrazoletriol,50898
hysteroscope,50898
Ddit3,50898
scalar implicature,50898
digital cultural heritage,50898
LSK,50898
hypoprolactinemia,50898
BOADICEA,50898
CCh,50898
mandibular nerve,50898
primary somatosensory area,50898
T1R2,50898
NGC 4565,50898
ungulate,50898
Gauss-Bonnet theorem,50898
tricuspid atresia,50898
angiotensin-converting enzyme 2,50898
hybrid zone,50898
poroelasticity,50898
bladder exstrophy,50898
transoral laser microsurgery,50898
CentOS,50898
Cholescintigraphy,50898
Sarcocystis,50898
PDZK1,50898
Cupriavidus,50898
Pyelonephritis,50898
TAROT,50898
nuclear export sequence,50898
Macrolobium,50898
Marojejy,50898
Sapotaceae,50898
ESPE,50898
FOXC1,50898
vermicompost,50898
sphingomyelins,50898
Blind fish,50898
Ulmener Maar,50898
apoa1,50898
Gamma-proteobacteria,50898
brent geese,50898
Ligament,50898
MPX,50898
HR 10,50898
Condensed tannin,50898
Chromatiaceae,50898
resultant force,50898
Trimethylsilyl,50898
rete testis,50898
HOBr,50898
Chabazite,50898
decortication,50898
break-up velocity,50898
cervical canal,50898
iCTV,50898
atactic,50898
Dutch migrant,50898
hereditary pancreatitis,50898
pregnancy induced hypertension,50898
flow visualization,50898
Golden Delicious,50898
cloacal exstrophy,50898
MAMP,50898
watermelon,50898
subglacial eruption,50898
hydroxysteroid,50898
Genetic screening,50898
idelalisib,50898
isoscapes,50898
Intima-media thickness,50898
A1073,50898
apoc3,50898
BMP-1,50898
spectral sensitivities,50898
Cardy formula,50898
acroparesthesia,50898
Chemotherapeutic agents,50898
air trapping,50898
Early Oligocene,50898
hemocyte,50898
infrapatellar,50898
Torticollis,50898
EEA,50898
condensed tannin,50898
electric-magnetic duality,50898
WMI,50898
Kabi,50898
RASGRF1,50898
Tlr2,50898
Mac OS,50898
angular size,50898
Pichia,50898
O. niloticus,50898
Laser surgery,50898
Neea,50898
anaplerotic,50898
respiratory alkalosis,50898
lumens,50898
DSMB,50898
Burkholderiaceae,50898
oxacillin,50898
eye bank,50898
married people,50898
pancuronium,50898
Ruilopezia,50898
superior oblique muscle,50898
schizencephaly,50898
damselfish,50898
Etiology,50898
The Real,50898
total fertility rate,50898
KIR3DL2,50898
EGLN1,50898
ARCO group,50898
intestinal ulcer,50898
Swartzia,50898
beta-cryptoxanthin,50898
point location,50898
hema,50898
EXO1,50898
Surgical pathology,50898
linear extension,50898
phenazone,50898
jatropha plantations,50898
purebred,50898
NSDHL,50898
Euryarchaeota,50898
Magnetic resonance spectroscopy,50898
cruciate ligament,50898
family organizations,50898
Cavefish,50898
docker,50898
Hiatal hernia,50898
Liebowitz Social Anxiety Scale,50898
trithiocarbonate,50898
recurrent aphthous stomatitis,50898
haptotaxis,50898
three-center two-electron bond,50898
virtual knot,50898
Excess risk,50898
wb,50898
TDE,50898
adjacency matrices,50898
interstimulus interval,50898
Agarose,50898
wet deposition,50898
EUdraCT,50898
Ehmt1,50898
TE buffer,50898
Manongarivo,50898
methionyl,50898
lycra,50898
Subtilase,50898
intestinal stricture,50898
safflower oil,50898
heteropteran,50898
PA28,50898
Anti-HBc,50898
B protocol,50898
heteropolymer,50898
Acitretin,50898
MK-4827,50898
Kanzi,50898
Vertical transmission,50898
tyloxapol,50898
Santa Teresa,50898
Fourier coefficient,50898
vALIC,50898
Erythrocytapheresis,50898
anti-predator behaviour,50898
orienting reflex,50898
vitreomacular adhesion,50898
Anuria,50898
Sitosterol,50898
stertorous,50898
dipolarophile,50898
Unix,50898
central serous retinopathy,50898
guppies,50898
extinct language,50898
property rights theory,50898
sodium selenite,50898
2005 general election campaign,50898
formvar,50898
pegylated interferon alfa-2b,50898
Kingston,50898
The Guardian,50898
United Nations General Assembly,50898
mantle cavity,50898
Stokes number,50898
search-space,50898
vertical search,50898
catenane,50898
aurora kinase,50898
Lucas number,50898
JCR,50898
immigration reform,50898
Garrett Hardin,50898
hypomotility,50898
city canal,50898
MD1,50898
X-radiation,50898
arity,50898
Mellenbergh,50898
cognitive interviewing,50898
Carbene,50898
active galaxy,50898
escape times,50898
horizontal merger,50898
PSIN,50898
Social Europe,50898
self-incompatibility,50898
CAE,50898
"4,4'-bipyridine",50898
Protalix Biotherapeutics,50898
DANES,50898
neural population,50898
Rio Negro,50898
cell-surface receptor,50898
Hidden Valley,50898
citizen science,50898
Cyclic Process,50898
Russian avant-garde,50898
non-suicidal self-injury,50898
Bipolaris,50898
stable equilibria,50898
Urocitellus,50898
public bad,50898
Construal Level Theory,50898
tympanostomy tube,50898
Ottaviano,50898
Thiotrichaceae,50898
bulk cargo,50898
monoethanolamine,50898
Collective identity,50898
Blepharospasm,50898
central market,50898
Kanpur,50898
Social influence,50898
Fisher Kernel,50898
Shah,50898
transboundary rivers,50898
triethyl phosphate,50898
seasonal allergic rhinitis,50898
peripheral nerve dysfunction,50898
class consciousness,50898
hardwire,50898
DIPEA,50898
electronic traps,50898
Poecilostomatoida,50898
West Virginia,50898
Occupational Exposure Limits,50898
AVO,50898
rational agent,50898
dermabrasion,50898
regionalisation,50898
CTU,50898
bilirubin metabolism,50898
"1,2,4-trichlorobenzene",50898
Caridina nilotica,50898
Nudge theory,50898
Voronoi diagram,50898
representative concentration pathways,50898
Biofouling,50898
striped bass,50898
equilibrium thermodynamics,50898
Staudinger reaction,50898
Chameau,50898
learning vector quantization,50898
lemming,50898
interleukin-17A,50898
F2F,50898
Ceuta,50898
global production network,50898
community forestry,50898
International Plant Genetic Resources Institute,50898
Kurdish language,50898
nephrogenic diabetes insipidus,50898
labour force survey,50898
San Rafael,50898
higher place,50898
proof-theoretically,50898
cervical pregnancy,50898
fait accompli,50898
Bedford,50898
CdTe,50898
NMT,50898
Adema,50898
arithmetical hierarchy,50898
Coromandel Coast,50898
voting advice application,50898
TLOs,50898
fluorescamine,50898
inclusion body,50898
Kiki Smith,50898
economist,50898
Variational Bayes,50898
"1,3-DCP",50898
SnF2,50898
mental imaging,50898
animal navigation,50898
x-ray binaries,50898
atropisomeric,50898
Sahaptin,68992
hunker,50898
Acropora palmata,50898
JSSE,50898
Greco-Roman,50898
Apoidea,50898
Brubaker,50898
megaprojects,50898
M28,50898
breastmilk,50898
Process model,50898
cyclotriveratrylene,50898
task-based learning,50898
Trouessart,50898
ageist,50898
generational accounting,50898
abstract art,50898
Canal Zone,50898
Adjective,50898
Large deviations theory,50898
inept,50898
metonymically,50898
dicephalus,50898
music theory,50898
Major League Baseball,50898
technology-enhanced learning,50898
inverse beta decay,50898
rival factions,50898
cryptoendolithic,50898
right-to-left shunt,50898
central Uganda,50898
dais,50898
understanding media,50898
sustainable development goals (SDGs),50898
Curdlan,50898
false memories,50898
Offaly,50898
Padina,50898
cyclic homology,50898
European Delirium Association,50898
inclusion-exclusion,50898
Fukushima Daiichi nuclear disaster,50898
meiotic sex,50898
Paul Slovic,50898
resource productivity,50898
Blackshaw,50898
Iranian Traditional Medicine,50898
lunisolar,50898
scleral lens,50898
ground-penetrating radar,50898
human body shape,50898
cellular lineage,50898
Woensel,50898
Circus cyaneus,50898
special requirements,50898
Circumflex,50898
triadic closure,50898
Cinema4D,50898
fret,50898
M83,50898
AuI,50898
brown alga,50898
eScience,50898
transillumination,50898
unitary group,50898
multi-objective optimization,50898
STOC,50898
mobile learning,50898
postmarketing surveillance,50898
film producer,50898
DGPs,50898
abductive logic programming,50898
Abdullah ocalan,50898
Microstrip,50898
integral field unit,50898
path diagrams,50898
sodium carbonate,50898
electronic patient record,50898
calcium tartrate,50898
MPS IIIB,50898
monogenic disorder,50898
scoring algorithm,50898
Federal Trade Commission,50898
source function,50898
residual chemical shift anisotropy,50898
micrograph,50898
triangle model,50898
distributed leadership,50898
multiple discovery,50898
pseudoconvexity,50898
amniote,50898
Gabor wavelet,50898
Monteggia fracture,50898
Thought suppression,50898
diminishing returns,50898
millennium development goals,50898
behavioural addiction,50898
open learning,50898
industrial catalysts,50898
Gries,50898
Cressida Heyes,50898
intravenous fluid therapy,50898
Amirantes,50898
IJCAI,50898
nitrogen washout,50898
Thecosomata,50898
Van Gend en Loos,50898
food poisoning,50898
survey data collection,50898
food advertising,50898
regional anaesthesia,50898
national immunization program,50898
hazard map,50898
Mindfulness-based stress reduction,50898
fine time,50898
grazing angle,50898
Enterocytozoon bieneusi,50898
Isaac Dorislaus,50898
acute disseminated encephalomyelitis,50898
somatostatin receptor,50898
quick clay,50898
Sleep architecture,50898
HLA-B12,50898
BICI,50898
diastereoselectivities,50898
dark radiation,50898
dalcetrapib,50898
cardinal ligament,50898
area 33,50898
sirenomelia,50898
mandelate,50898
Rattus,50898
communist regime,50898
F30,50898
electromagnetics,50898
deinstitutionalization,50898
Low justice,50898
SFP,50898
OSBPL1A,50898
Rhynchospora,50898
RIPK3,50898
tases,50898
spectral edge frequency,50898
heterotypic synonym,50898
Astrocaryum,50898
Cytochrome P450 3A4,50898
segmentectomy,50898
TFF2,50898
slow-wave sleep,50898
.hr,50898
super-enhancer,50898
levomilnacipran,50898
thrombin time,50898
chemo-immunotherapeutic,50898
gamma knife,50898
Denpasar,50898
chemotactically,50898
malonyldialdehyde,50898
Mucopolysaccharide,50898
VISTA,50898
CP-55940,50898
cell energy,50898
cupric oxide,50898
iritis,50898
Montrichardia,50898
"phosphatidylinositol 4,5-biphosphate",50898
cm-5,50898
top candidate,50898
het Gooi,50898
ecarin clotting time,50898
E2c,50898
ASS1,50898
RBBP4,50898
TRACER,50898
Ivor Lewis,50898
Candida dubliniensis,50898
bivariate normal,50898
Robo1,50898
melissopalynology,50898
powdery mildew,50898
PCHA,50898
blastomycosis,50898
milnacipran,50898
methanal,50898
canonical analysis,50898
The warning,50898
tenascin,50898
5-phosphoribosyl-1-pyrophosphate,50898
inducible defenses,50898
Ephedraceae,50898
azan,50898
NK-92,50898
polyacrylonitrile,50898
Ajtai,50898
clonorchiasis,50898
Torsades de Pointes,50898
Valve-sparing aortic root replacement,50898
Arch Otolaryngol Head Neck Surg,50898
carotinoid,50898
Skewness,50898
Nitrariaceae,50898
ascl2,50898
membrane filters,50898
cholesterol ester storage disease,50898
Lao Theung,50898
W78,50898
pyloric glands,50898
GDF7,50898
argininosuccinate synthase,50898
TrkA,50898
"ICI 182,780",50898
SGM,50898
riboflavin deficiency,50898
Avoidant Personality Disorder,50898
Rickettsia typhi,50898
sublimates,50898
abcg5,50898
Polyploidy,50898
Total Internal Reflection,50898
R76,50898
underexpression,50898
pseudorotation,50898
zygomycete,50898
SD1,50898
newer technology,50898
intermediate polar,50898
impact extrusion,50898
multiresistance,50898
Probenecid,50898
assortative mixing,50898
Vanadium pentoxide,50898
Mut,50898
Kinetic resolution,50898
urine analyses,50898
Anti-retroviral therapy,50898
Clusiaceae,50898
club drugs,50898
ENGERIX-B,50898
Antigenicity,50898
Halorubrum,50898
Orientia,50898
MDV3100,50898
platelet aggregation inhibitor,50898
Mimosa,50898
NFE2L2,50898
guilder,50898
currant,50898
3D printing,50898
Asexuality,50898
re-encounter,50898
AtT,50898
Isomorphism,50898
low-carbohydrate diet,50898
Myc,50898
cluster II,50898
Bonferroni test,50898
pi interaction,50898
size principle,50898
colliding wind,50898
cyp7a1,50898
pistachio,50898
IL-21R,50898
elastic recoil,50898
NGC 4656,50898
Square Kilometre Array (SKA),50898
purple non-sulfur bacteria,50898
iron curtain,50898
A. hydrophila,50898
carbene dimerization,50898
Reionization,50898
CNTN1,50898
animal age,50898
solar variation,50898
asteroid-belt,50898
JARID2,50898
hyperphosphatemia,50898
tsutsugamushi,50898
Ordnance Datum,50898
economic sanctions,50898
radiobiology,50898
PRPP,50898
electronic microscopy,50898
PROSTVAC,50898
oral allergy syndrome,50898
purchasing power parity,50898
Inductively coupled plasma atomic emission spectroscopy,50898
Novel sequence,50898
GZMA,50898
Transposon,50898
seed plants,50898
biological safety,50898
hematologic disease,50898
slowest rotator,50898
Vismia,50898
Retinal detachments,50898
Polymethylmethacrylate,50898
ZM447439,50898
Cockshoot Broad,50898
PTHLH,50898
SN1,50898
OROBOROS,50898
lymphatic vessel,50898
GJA12,50898
deterministic process,50898
monospecificity,50898
endosymbiosis,50898
cavernous nerves,50898
requirements analysis,50898
temporal summation,50898
retinal dehydrogenase,50898
Innsbruck,50898
NADP+,50898
Fusobacterium necrophorum,50898
capillary rise,50898
non-innocent ligand,50898
Slc38a3,50898
Goupia,50898
homologous chromosome,50898
postganglionic,50898
beta oxidation,50898
phospholipid-derived fatty acids,50898
"toxoplasmosis, ocular",50898
plant succession,50898
cucurbit,50898
WD repeat,50898
GZMB,50898
exoplanetology,50898
P52,50898
organometallic reaction,50898
Human Brain Mapping,50898
efflorescent,50898
QFS,50898
Biozone,50898
PEN1,50898
LpX,50898
COMT inhibitor,50898
magnetic resonance cholangiopancreatography,50898
TGFB,50898
GPR109A,50898
polemic,50898
C. lusitaniae,50898
Dehydration,50898
4-methylcatechol,50898
chemolithotrophic,50898
myogenesis,50898
Multidisciplinary approach,50898
trazodone,50898
EA10,50898
protein kinases A,50898
ER retention,50898
regulatory sequence,50898
zibotentan,50898
histoplasmosis,50898
protocluster,50898
XETA,50898
B-Raf,50898
pyridoxamine phosphate,50898
ESRC,50898
Tarim,50898
entacapone,50898
birdshot,50898
scotopic,50898
EGR,50898
particle aggregation,50898
Sloanea,50898
conservationist,50898
T follicular helper cells,50898
Wsb1,50898
apodized,50898
crystal mass,50898
Abca1,50898
OBI,50898
Sn2,50898
vilazodone,50898
ephrin-A2,50898
archosaur,50898
Geonoma,50898
Diphosphines,50898
e3,50898
Halobacteria,50898
sacral agenesis,50898
nasal polyp,50898
PF3,50898
millennium summit,50898
Fourier-transform infrared spectroscopy,50898
Myalgic encephalomyelitis,50898
legal drinking age,50898
alkylbenzene,50898
dynamic time warping,50898
soluble fibre,50898
Principal Stratification,50898
ung,50898
financial capitalism,50898
WIYN,50898
beat detection,50898
Lauwersmeer,50898
Coparenting,50898
childhood aggression,50898
surgical ligation,50898
external variable,50898
apotheosis,50898
discourse particle,50898
beam crossing,50898
Antivirals,50898
Greenpeace,50898
Jacobin,50898
terahertz,50898
cognitive retraining,50898
Port Authority,50898
MacAlister,50898
Formidable,50898
integer linear program,50898
Chern character,50898
gaming culture,50898
virtualization,50898
interactive media,50898
tax planning,50898
electron transfer flavoprotein,50898
Mona,50898
Hypervitaminosis A,50898
GWR,50898
gauss,50898
United Nations Security Council,50898
d-value,50898
taste receptor,50898
lossy,50898
Gnetales,50898
cone-rod dystrophy,50898
Sacrifice,50898
caesura,50898
Bala,50898
Schema therapy,50898
joint criminal enterprise,50898
pulmonologist,50898
python,50898
Kieskompas,50898
double negation,50898
Burhinus oedicnemus,50898
robust standard deviation,50898
Conformal symmetry,50898
superstring theory,50898
anti-convulsant,50898
sarcocystosis,50898
Givetian,50898
North American Free Trade Agreement,50898
motivated reasoning,50898
CIZ,50898
univalent function,50898
indegree,50898
hyphomycete,50898
cut-elimination,50898
stopping time,50898
measurable function,50898
polyploidy,50898
behenic,50898
extrastriate cortical,50898
glossectomy,50898
Santa Tecla,50898
Yamazaki,50898
communicable disease,50898
Peter Lamarque,50898
Opportunism,50898
involutive,50898
Bosphorus,50898
primary polydipsia,50898
foreign direct investment,50898
tree roots,50898
secondary market,50898
dative case,50898
Lake Nabugabo,50898
iron-57,50898
decompressive craniectomy,50898
Halberstam,50898
Solidarity,50898
coalition government,50898
wastewater treatment plant,50898
Rotavirus,50898
time-gate,50898
coiled-coil motif,50898
supravalvular aortic stenosis,50898
semi-decidable,50898
neglected tropical disease,50898
Gelderland,50898
World Series,50898
direct object,50898
Tarantula nebula,50898
1917 Russian Revolution,50898
Primary succession,50898
Dichocoenia,50898
Somalis,50898
fistulation,50898
Alcyonacea,50898
social problem-solving,50898
vertex coloring,50898
heavy-tailed distribution,50898
lyonization,50898
agglutinative,50898
G20 summit,50898
Room temperature,50898
blood pressure monitor,50898
Mayer-Salovey-Caruso Emotional Intelligence Test,50898
manganite,50898
multimedia framework,50898
Centaurus A,50898
language identification,50898
expressive suppression,50898
The Proposition,50898
earnings surprise,50898
Melilla,50898
Grob,50898
HMPT,50898
Astrogliosis,50898
Austerlitz,50898
prey switching,50898
Commission President,50898
body forces,50898
XQuery,50898
FL4,50898
Halichondrida,50898
Greek language,50898
epicenter,50898
Material design,50898
Helmholtz equation,50898
dialectology,50898
Esperantic Studies Foundation,50898
21 questions,50898
Juselius,50898
Jamie Peck,50898
Liberty,50898
sustainable chemistry,50898
Hardline,50898
spondyloarthropathies,50898
RS2,50898
Perth,50898
Alpago,50898
Last Ice Age,50898
relaxation training,50898
NGC 6814,50898
combinatorics,50898
Langevin equation,50898
phase contrast magnetic resonance imaging,50898
dual representation,50898
Lygodactylus picturatus,50898
HCl(aq),50898
policy-capturing,50898
premature convergence,50898
Nr1d1,50898
enclave,50898
datamining,50898
Roseboom,50898
Mizoram,50898
protoporphyrin,50898
U.S. presidential election,50898
Misfolded proteins,50898
thyroid hormone receptor beta,50898
document scanning,50898
hypertensive emergency,50898
statistical hypothesis testing,50898
Junin region,50898
corepresentation,50898
Otorhinolaryngology,50898
Desmoglein,50898
DIC microscopy,50898
Euthecosomata,50898
Suppurative,50898
Zaire ebolavirus,50898
Minimally Invasive Surgery,50898
GW170104,50898
Sixteen women,50898
Ioffe,50898
floating-point,50898
Chambery,50898
furoate,50898
rave,50898
Blablacar,50898
particle therapy,50898
Rona Pondick,50898
small saphenous vein,50898
Hemorheology,50898
cheap imitation,50898
European Banking Authority,50898
ALALIs,50898
efflorescence,50898
martingale central limit theorem,50898
planar array,50898
Giovanni Pierluigi da Palestrina,50898
Anschluss,50898
paralytic shellfish poisoning,50898
induced map,50898
tarsal plate,50898
NDCG,50898
sales tax,50898
cusp form,50898
MS star,50898
chauvinist,50898
Wicked problems,50898
DNA supercoil,50898
EFNA2,50898
iron toxicity,50898
Wettinia,50898
LAG3,50898
galactic disk,50898
Guiana shield,50898
Clusia,50898
COPI,50898
sealant,50898
Mya,50898
Putten,50898
Petaluma,50898
bacterial oxidation,50898
glucose-6-phosphate dehydrogenase deficiency,50898
rVSV-ZEBOV,50898
antibody opsonization,50898
aspartoacylase,50898
Lower respiratory tract,50898
Non-ST Elevation Myocardial Infarction,50898
GOT1,50898
reactogenic,50898
hypogastric plexus,50898
broad beans,50898
subcutaneous abscess,50898
Kielbasa,50898
myeloperoxidase deficiency,50898
aflibercept,50898
AstraZeneca,50898
Usme,50898
non-informative prior,50898
NGC 5907,50898
Puya,50898
sigma-bond metathesis,50898
aortic cross-clamp,50898
vent.,50898
succinimide,50898
Cosmopolitan,50898
NADEs,50898
itt,50898
Zileuton,50898
cyclooxygenase inhibitors,50898
infantile spasms,50898
glutarimide,50898
DLL,50898
RAMP1,50898
leptin receptor,50898
TFAP2A,50898
ephrin receptor,50898
pyogenic,50898
DMC1,50898
Salto,50898
Ionian Islands,50898
EPHB1,50898
Elzevier,50898
si face,50898
glutamate decarboxylase,50898
Efferent nerve,50898
IL-23 receptor,50898
Tequendama,50898
UMP synthase,50898
GAD1,50898
autoagglutination,50898
Paleoindians,50898
Acta1,50898
lovastatin,50898
GAD2,50898
Minahasa,50898
morainic,50898
The eyebrow,50898
Takasaki,50898
Lefschetz Theorem,50898
affective spectrum,50898
iPrOH,50898
gastrotomy,50898
Jew,50898
Sugino,50898
complex adaptive system,50898
Panama Canal,50898
juvenile rheumatoid arthritis,50898
multiple factor analysis,50898
Nasonia vitripennis,50898
Dasypus,50898
Lyman-alpha forest,50898
Cape Flats,50898
additive Schwarz method,50898
milk allergy,50898
Interleukin 17,50898
improvisation,50898
Interlinguistics,50898
UNSC,50898
Clare,50898
glutamate toxicity,50898
Smc2,50898
Punjab,50898
ranch,50898
Donald Trump,50898
social epistemology,50898
manifesto,50898
senselessness,50898
dielectric susceptibility,50898
trance,50898
decision boundaries,50898
Zagier,50898
NREM,50898
C-K theory,50898
Deligne,50898
metonymy,50898
insoluble fibre,50898
Molonglo Observatory Synthesis Telescope,50898
Pulsatility Index,50898
positive tone,50898
Lyft,50898
Asthenia,50898
transabdominal ultrasonography,50898
modified Stroop task,50898
"9,10-dihydroanthracene",50898
Whole Genome Sequencing,50898
critical realism,50898
insitu,50898
dorsal compartment,50898
uber,50898
1st Wave,50898
double taxation,50898
quasimode,50898
unconventional superconductor,50898
seronegative arthritis,50898
Lamarck,50898
Latemar,50898
Dutch Health Council,50898
Seru,50898
tridiagonal,50898
eugenic,50898
Public Distribution System,50898
85Rb,50898
chromatic number,50898
copper oxide,50898
Diploid,50898
Gericault,50898
jelly fish,50898
N-35,50898
semicircular canal,50898
internal carotid,50898
macros,50898
Schubert calculus,50898
dehydroamino acids,50898
Geminga,50898
AR(1) process,50898
Europarties,50898
brain herniation,50898
command responsibility,50898
minimum-phase,50898
Medical Subject Headings (MeSH),50898
monoculturalist,50898
vocal cords,50898
transition rate matrix,50898
CP-even,50898
Aidan,50898
apparent competition,50898
food-borne illness,50898
plastic container,50898
Euro crisis,50898
Stegastes planifrons,50898
Galicia,50898
Fermi Gamma-ray Space Telescope,50898
interaction techniques,50898
The anomalies,50898
hordaland,50898
rent seeking,50898
Physical abuse,50898
Taeniopygia guttata,50898
Dzyaloshinskii-Moriya,50898
SUV39H1,50898
many-body theory,50898
molecular machine,50898
TWh,50898
divisor class group,50898
conch,50898
ebullition,50898
epidermoid cyst,50898
clinical officer,50898
Hongsa,50898
Cindy Sherman,50898
sec-butyl,50898
epigenome,50898
infiltrometer,50898
African Union,50898
Cichlid,50898
type II superconductor,50898
biotic stress,50898
trade credit,50898
formal principle,50898
sacrospinous,50898
edit distance,50898
timed automata,50898
Eastwood City,50898
superior transverse ligament,50898
Opposing views,50898
Victor,50898
tropical grasslands,50898
normal operator,50898
large hadron collider,50898
anthracenes,50898
isodicentric,50898
Learning Speed,50898
Sakuma,50898
bourgeois cosmopolitanism,50898
official language,50898
urodynamic testing,50898
A 46,50898
Medical Register,50898
BlackBerry,50898
life-size,50898
magnetic inclination,50898
glaciovolcanism,50898
Murray Bookchin,50898
Elias,50898
Dermabrasion,50898
early-type star,50898
DNA production,50898
black market,50898
RS3,50898
nano materials,50898
fixed-point property,50898
epigenetic inheritance,50898
Suzuki-Miyaura cross-coupling,50898
Newport,50898
Menaquinone,50898
NRK,50898
Sina Weibo,50898
Amsterdam archives,50898
Beringia,50898
WorldCat,50898
Effect size,50898
International Social Security Association,50898
Large Binocular Telescope (LBT),50898
metamodeling,50898
germplasm,50898
CREs,50898
GRB 090423,50898
Russian Revolution,50898
hydrocoral,50898
mutual insurance,50898
polydimethylsiloxane,50898
Serine protease,50898
Electro,50898
reference class,50898
biomembrane,50898
Emmanuel Levinas,50898
provability logic,50898
LinkedIn,50898
Euclidean group,50898
thumb hypoplasia,50898
Sry,50898
alliance (Sweden),50898
MSCEIT,50898
posterior circumflex humeral artery,50898
sensory overload,50898
African Great Lakes,50898
East Jerusalem,50898
Dual-band,50898
Varroidae,50898
Lick Observatory,50898
CT scanned,50898
CXCL3,50898
Acta Biomaterialia,50898
mesenchymal tumors,50898
CXCL5,50898
A357,50898
one-electron bond,50898
Endarterectomy,50898
steric strain,50898
Flavobacteriaceae,50898
NCoR,50898
viral content,50898
neurogenic inflammation,50898
Panonychus ulmi,50898
Adam Sandler,50898
granivores,50898
Poisson random variables,50898
policy games,50898
pitch accent,50898
elastic net,50898
Wide-field Infrared Survey Explorer (WISE),50898
LDLRAP1,50898
Stripe 82,50898
HD 179821,50898
IL 17,50898
Orange Carotenoid Protein,50898
Phylloscopus trochilus,50898
Paralympic Games,50898
metalinguistic,50898
Lasso regression,50898
hardcore,50898
Maxwell field,50898
erasure channel,50898
content delivery,50898
urologist,50898
Baguio City,50898
ethylacetate,50898
Helarctos,50898
bosonic field,50898
Sinoatrial node,50898
Infrared thermography,50898
Sipuleucel-T,50898
prokinetic agent,50898
current contents,50898
Clifford Algebra,50898
choledochal cyst,50898
developmental trauma disorder,50898
biological growth,50898
carbamyl phosphate,50898
supersingular,50898
Taphozous,50898
informal settlement,50898
Bolikhamxai Province,50898
Camelopardalis,50898
Medical equipment,50898
mosm,50898
image stitching,50898
work scheduling,50898
street photography,50898
quadratic equation,50898
DMAD,50898
electric polarization,50898
Cradle-to-Cradle,50898
Mouawad,50898
Thor,50898
online game,50898
sequestrant,50898
Guya,50898
free algebra,50898
optical camera,50898
paranoid type,50898
financial centre,50898
PCIe,50898
Rotary,50898
2009 European Election,50898
Hillary Clinton,50898
liberal-progressive,50898
slaked lime,50898
S.cerevisiae,50898
chlor,50898
Huili,50898
de Broglie wavelength,50898
outdegree,50898
Calgary,50898
Microfit,50898
junctional adhesion molecule,50898
noisy channel,50898
11 eyes,50898
styrene-acrylonitrile,50898
chemical nomenclature,50898
confidence region,50898
black hole thermodynamics,50898
transversus,50898
Airbnb,50898
open hand,50898
halftone,50898
Aramean,50898
system X,50898
General Court,50898
Mara Salvatrucha,50898
XSLT,50898
survival function,50898
INSPEC,50898
pseudodifferential operator,50898
European Constitutional Treaty,50898
U-statistic,50898
The Forum,50898
maternal-fetal medicine,50898
binary search,50898
Acheloos,50898
Wide Angle,50898
Concertgebouw,50898
Mytilus californianus,50898
small angle x-ray scattering,50898
Fredric Jameson,50898
zoster vaccine,50898
PRECEDE-PROCEED,50898
Sandveld,50898
Emotional Quotient,50898
work-in,50898
Feticide,50898
The photons,50898
kleptomania,50898
cia,50898
racialized,50898
knowledge discovery,50898
left-wing politics,50898
Singel,50898
morphine-3-glucuronide,50898
stellar structure,50898
Mansonella perstans,50898
Kodama,50898
Jan Tinbergen,50898
diffuse layer,50898
saturated liquid,50898
vector group,50898
regulatory capture,50898
primary lateral sclerosis,50898
Scenedesmus obliquus,50898
G.H. von Wright,50898
LiNbO3,50898
viral gastroenteritis,50898
leathermen,50898
Resolution 1267,50898
tuberculosis management,50898
NIMH,50898
samarium,50898
phase precession,50898
body plethysmography,50898
microfibrils,50898
Academic Hospital Paramaribo,50898
sexualization,50898
early music,50898
event log,50898
relative binding affinity,50898
matching theory,50898
Solanum pimpinellifolium,50898
BF theory,50898
adelphophagy,50898
chronaxie,50898
southern fulmar,50898
Pustejovsky,50898
Soft tissue sarcoma,50898
retropharyngeal abscess,50898
magic triangle,50898
OCLC,50898
gelfoam,50898
Takebe,50898
unmixed,50898
cystogastrostomy,50898
batter,50898
hexafluorosilicate,50898
matter power spectrum,50898
ergogenic aids,50898
plasmonics,50898
misled,50898
Megaproject,50898
Linxi,50898
Shuangjing,50898
Schist,50898
1000 Genomes project,50898
double feature,50898
lambdoid,50898
strong CP problem,50898
Han Han,50898
paratactic,50898
parametric family,50898
morphine-6-glucuronide,50898
saline lake,50898
long QT,50898
heterokaryon,50898
backtesting,50898
RCW 36,50898
LISS,50898
Duane anomaly,50898
Big Bang,50898
constraint logic programming,50898
cupid,50898
Compound muscle action potential,50898
Ensemble Kalman filter,50898
flat connection,50898
Saturn,50898
Voting Advice Application,50898
cosine similarity,50898
Smc5,50898
speculative realism,50898
Reference data,50898
stem loop,50898
hydraulic lime,50898
Atlantoxerus,50898
dramaturgy,50898
semistable reduction,50898
Oxidative deamination,50898
mathematical morphology,50898
Short-term memory,50898
exorcistic,50898
Paxinos,50898
Conrad,50898
joyous entries,50898
Beth definability,50898
Urease,50898
electron deficiency,50898
Gromov-Witten invariants,50898
ery,50898
Staphylococcus saprophyticus,50898
inverted repeat,50898
Grassmann,50898
Mark2,50898
Luweero,50898
constrictors,50898
aluminum foil,50898
sub-symbolic,50898
Lovell Telescope,50898
Brain death,50898
Cope,50898
development case,50898
Regional planning,50898
academic journal,50898
Arctic fox,50898
Tephra,50898
L-theory,50898
Algiers,50898
sexual prejudice,50898
CAVE,50898
Electron backscatter diffraction,50898
Montfort,50898
Greater Accra,50898
Hypersaline,50898
classical receptive field,50898
ready-made garment (RMG),50898
fronto,50898
dental service,50898
dimethoxybenzene,50898
post-transfusion purpura,50898
Light Cone,50898
rotor-based,50898
vasculitic,50898
D 88,50898
intermediate fibers,50898
Gerrit de Wet,50898
iPhone,50898
terracettes,50898
haplodiploidy,50898
spirochaete,50898
Concertgebouw Orchestra,50898
active galaxies,50898
"SL(2,R)",50898
2004 elections,50898
Eurozone crisis,50898
LGBTI,50898
cistern,50898
stream processing,50898
Atmospheric pressure chemical ionization,50898
critical rotation,50898
cloud base,50898
Proof-theoretically,50898
GPR97,50898
occults,50898
The inspectors,50898
cerebral hypoxia,50898
data reliability,50898
cued recall,50898
ias,50898
MUS81,50898
auxetics,50898
hyperlink,50898
Eurosceptics,50898
incus,50898
mummies,50898
Glaw,50898
tempo doeloe,50898
Bertholletia excelsa,50898
HLA-A11,50898
TCN,50898
room scale,50898
Wei,50898
Wuhan,50898
ISBN,50898
CoLQ,50898
halogenation,50898
vegetative reproduction,50898
Larry Silverstein,50898
bronchus-associated lymphoid tissue,50898
Berkeley Software Distribution,50898
WAHO,50898
TaskRabbit,50898
sexual norm,50898
red-eared slider turtle,50898
polyethylene oxide,50898
neurological exam,50898
basolateral complex,50898
arms trafficking,50898
QSFP,50898
Out-of-hours service,50898
Level I trauma center,50898
image viewer,50898
Hydrostatic pressure,50898
A.J.,50898
18 Brumaire,50898
eddy diffusivity,50898
Harmonia axyridis,50898
productive cough,50898
histone deacetylase 2,50898
human T-lymphotropic virus,50898
commercial eye tracking,50898
Greater Glasgow Health Board,50898
Hurst parameter,50898
plantar arch,50898
spin liquid,50898
anagram,50898
Postmodernism,50898
COMPAS,50898
electronic mail,50898
Geer,50898
ventral temporal cortex,50898
RAB3GAP1,50898
human migration,50898
network centrality,50898
SLC16A2,50898
Cluster B personality disorders,50898
high live,50898
Community Mobilization,50898
pancreatic cyst,50898
computational algebraic geometry,50898
macroconidia,50898
viral myocarditis,50898
Kramers-Kronig relations,50898
Experiential avoidance,50898
pressure coefficient,50898
senile dementia,50898
Nagapattinam,50898
Broad Institute,50898
Newtonian fluid,50898
hepatitis C virus genotype,50898
polytetrafluorethylene,50898
Whitehouse Station,50898
frontal bone,50898
medical journal,50898
pink-footed goose,50898
hyperuricosuria,50898
mereological,50898
Palomar Transient Factory,50898
discrete measure,50898
Exloo,50898
sesamoid bones,50898
micrometre,50898
scientific CMOS,50898
sphere packings,50898
FAM123B,50898
mixed oxide,50898
arcminutes,50898
universal Turing machine,50898
Acheloos river,50898
mimetic desire,50898
Embolization,50898
ING Group,50898
Adriaen Verdoel,50898
Dar-es-Salaam,50898
Surrealist,50898
New West,50898
Indo-Malayan Archipelago,50898
B46,50898
abstract theory,50898
property testing,50898
classes S,50898
GPR114,50898
Prionodon,50898
interleukin 18,50898
RHS,50898
Crocodylus,50898
courgette,50898
Mutually exclusive,50898
modal algebra,50898
mutational load,50898
"New York, New York",50898
Brookhaven,50898
finite extension,50898
TEFL,50898
end-group,50898
Nature Communications,50898
sixteen acres,50898
Macrophyte,50898
frequency interpretation,50898
stimulated Raman adiabatic passage,50898
measurable space,50898
NaBF4,50898
Archaeoglobus fulgidus,50898
Royal Netherlands Meteorological Institute,50898
Chikwawa,50898
EBSD,50898
articular eminence,50898
causal patch,50898
nanotoxicology,50898
Trauma Symptom Inventory,50898
Birmingham,50898
Counter-hegemonic,50898
SU Aur,50898
spoken vocabulary,50898
imbue,50898
environmental crime,50898
Falluja,50898
Liu Changchun,50898
lycaenid,50898
hierarchy theory,50898
polynomial kernel,50898
Irian Barat,50898
Episyrphus balteatus,50898
atheism,50898
methoxetamine,50898
chiral catalyst,50898
Dialog,50898
reasonable man standard,50898
Western Africa,50898
Pavia,50898
single-unit recording,50898
aldh,50898
Tumor marker,50898
squamosal,50898
Vences,50898
polycation,50898
log-log plot,50898
kleptomaniac,50898
acromicric dysplasia,50898
anomalous dispersion,50898
Electromyogram,50898
Respiratory distress,50898
national language,50898
systematic musicology,50898
dinitrofluorobenzene,50898
Bakoumba,50898
British Civil Wars,50898
urban politics,50898
autism diagnostic observation schedule,50898
Prima facie,50898
glycerophosphocholine,50898
Bank erosion,50898
ATAD,50898
Discectomy,50898
Caltech,50898
AJAX,50898
Fossil fuel,50898
finite differences,50898
banal nationalism,50898
Specific absorption rate,50898
main flow,50898
schizophreniform,50898
semantic query,50898
phenylpropene,50898
MLM,50898
Pressure overload,50898
c-mpl,50898
amorphous carbon,50898
Aspergillus terreus,50898
Post-kala-azar dermal leishmaniasis,50898
Trachemys,50898
operation span,50898
Soligorsk,50898
extremal Kerr,50898
dispase,50898
electoral behaviour,50898
BCS theory,50898
angler,50898
Cannulation,50898
Avoidance Coping,50898
design time,50898
Baja California,50898
HAM/TSP,50898
Gowers norm,50898
polysemic,50898
Rabi oscillations,50898
comminution,50898
atomic scales,50898
Hillsdale,50898
NR2A,50898
saprotrophs,50898
Kunitz-type,50898
Cryptosporidiosis,50898
electric conductance,50898
peroneus longus,50898
Ligurian Sea,50898
Saksunarvatn,50898
sinus headache,50898
deep ecology,50898
Lauraceae,50898
variational Monte Carlo,50898
large-scale integration,50898
Al-Shabaab,50898
Proptosis,50898
axillary artery,50898
Moldova,50898
multilayer perceptron,50898
CD8 memory T cells,50898
Anglo-Australian Telescope,50898
Madonna di Campiglio,50898
acrocephaly,50898
Interventional Radiology,50898
Indo-Malaya,50898
tonic-clonic seizure,50898
Heteroduplex,50898
Metabolic flux analysis,50898
Milagro,50898
Arizona,50898
flux compactification,50898
free trade,50898
Nerve Centre,50898
megagrams,50898
BMC Bioinformatics,50898
relation algebra,50898
MasterA,50898
Civil Registration System,50898
activity coefficient,50898
Rojava,50898
Heideggerian,50898
ordered field,50898
saxitoxin,50898
elongation factor-1,50898
osteodystrophy,50898
Federalist,50898
Carlet,50898
Republican China,50898
tangled,50898
Sine-Gordon model,50898
counter-hegemony,50898
Colombo,50898
DaVita Inc.,50898
hospital practice,50898
rhinoceros,50898
Hamiltonian equations,50898
Z form,50898
fluoropolymer,50898
Physcomitrella patens,50898
Moyer,50898
countercultural,50898
Online questionnaires,50898
artificially selected,50898
Josephson junctions,50898
perpera,50898
Alligator mississippiensis,50898
SDS-polyacrylamide gel electrophoresis,50898
electrostatic precipitator,50898
gouty arthritis,50898
topologically associating domains,50898
MP1,50898
WikiPathways,50898
Mediterranean flour moth,50898
integrative bioinformatics,50898
potassium bromide,50898
qudit,50898
multimeter,50898
complex frequency space,50898
Pulmonary disease,50898
Metadata,50898
V factor,50898
mannose metabolism,50898
trapped-ion,50898
Gottwald,50898
discourse particles,50898
chronic progressive external ophthalmoplegia,50898
Islamic banking,50898
spire,50898
annular pancreas,50898
town hall,50898
microconidia,50898
post-kala-azar dermal leishmaniasis,50898
Approximately equal,50898
MEDs,50898
Faecal incontinence,50898
mantellid,50898
Oocyte,50898
Padova,50898
selective disclosure,50898
Allyl,50898
Grassmann manifold,50898
Fourier expansion,50898
Karaikal,50898
semantic feature,50898
burst error,50898
Anser brachyrhynchus,50898
Larus michahellis,50898
omnivore,50898
Army,50898
distributed processing,50898
Plecoptera,50898
learning speed,50898
Remazol Brilliant Blue R,50898
vagal inhibition,50898
Brevipalpus,50898
Autoantibody,50898
revised NEO Personality Inventory,50898
liability insurance,50898
softmax,50898
Heron Island,50898
KIF11,50898
squalene epoxidase,50898
RDF triple,50898
BioRad,50898
Madre de Dios,50898
negative thermal expansion,50898
Pfannenstiel incision,50898
pouchoscopy,50898
xerosis cutis,50898
limnic eruption,50898
complement component 5,50898
International Personality Item Pool,50898
image scaling,50898
Eurovision,50898
Kala-azar,50898
computational social science,50898
ACTH Stimulation test,50898
incomplete market,50898
Particle size,50898
antiplatelet agent,50898
activins,50898
Li Ning,50898
popular sovereignty,50898
CORALIE,50898
PANGEA,50898
vanadium pentoxide,50898
REGA,50898
Suberites domuncula,50898
Ephestia kuehniella,50898
Flolan,50898
OCT-1,50898
Indirect approach,50898
MCC deficiency,50898
TADS,50898
DaVita,50898
Gravitational wave,50898
roll-off,50898
IceCube neutrino observatory,50898
Ragama,50898
self-censorship,50898
Bassoon,50898
odontoid,50898
NOON,50898
reflection symmetry,50898
ICl,50898
urologic disease,50898
Learning speed,50898
prealbumin,50898
Statistical Process Control,50898
bunchgrass,50898
Crick,50898
peritoneal layer,50898
Spore,50898
GRAS,50898
Littorella,50898
The Front,50898
undecaprenyl phosphate,50898
social practice theory,50898
Afforestation,50898
Chrysobalanaceae,50898
International law,50898
voice frequency,50898
Hertzsprung,50898
dive profile,50898
Recall bias,50898
S100 protein,50898
Amyloidosis,50898
STRIPS,50898
Alcohol Consumption,50898
diethylstilboestrol,50898
Ziploc,50898
plaquette,50898
metabonomics,50898
source criticism,50898
autocorrelation technique,50898
good behaviour,50898
Negation,50898
Inotropic,50898
chiral condensate,50898
singleton set,50898
ascending pharyngeal artery,50898
Holocene climatic optimum,50898
Tangier Island,50898
Learning curve,50898
holism,50898
rheumatic fever,50898
peanut-allergic,50898
BREF,50898
standard conjectures,50898
depressive personality disorder,50898
degasification,50898
coriander,50898
Haifa,50898
visna,50898
Respiratory quotient,50898
Filippi,50898
population transfer,50898
Litvinov,50898
Reuven Ramaty High Energy Solar Spectroscopic Imager,50898
siphon,50898
Bone tumor,50898
ACS group,50898
ETV6-NTRK3,50898
Nemorhaedus,50898
Absorption spectroscopy,50898
capoeira,50898
Stathmin,50898
ACP1,50898
"Vietnam National University, Hanoi",50898
Mertens,50898
reverse genetics,50898
Iran-Iraq war,50898
British National Party,50898
No result,50898
NMR spectrometer,50898
Wilhelm Dilthey,50898
EBIs,50898
fiberscope,50898
Liouville theory,50898
"1,2-dichloro-4-nitrobenzene",50898
direct air capture,50898
heterokaryotic,50898
Cymodocea nodosa,50898
The craving,50898
aplastic anaemia,50898
purine analogues,50898
repetitive strain injuries,50898
chipboard,50898
Levenshtein distance,50898
Planck satellite,50898
vap,50898
22-250,50898
Cox1,50898
barycentric coordinates,50898
Laudian,50898
motivic cohomology,50898
equipoise,50898
GRIA4,50898
Branta bernicla,50898
Nav1.8,50898
MARCKS,50898
repealer,50898
Intracranial pressure,50898
mouthfuls,50898
rights based approach,50898
XSD,50898
ERCC8,50898
LGN,50898
VBI,50898
LSU rRNA,50898
Leopoldamys,50898
southern blot,50898
finite-difference approximation,50898
pityriasis alba,50898
complex multiplication,50898
F/6,50898
gall,50898
cinnamoyl-CoA,50898
Lucifer yellow,50898
Mekong River Commission,50898
integra,50898
HPV Vaccine,50898
Orwellian,50898
Pyrazinamide,50898
Great Barrier Reef,50898
intermediate region,50898
Dutch municipality,50898
Gum nebula,50898
Arameans',50898
Bure,50898
gap 2,50898
FOXF1,50898
inpainting,50898
Ensemble Monte Carlo,50898
Etiological,50898
chronic renal disease,50898
steatorrhea,50898
Lycopodiella,50898
Expression Atlas,50898
goal theory,50898
knapsack,50898
European Constitution,50898
KIF3A,50898
spasmolytics,50898
semimembranosus muscle,50898
Pleurostoma,50898
Micra,50898
gyromagnetic ratio,50898
epithelial membrane antigen,50898
C-E,50898
elliptic functions,50898
Lang Ping,50898
parkour,50898
Kruger National Park,50898
Xestospongia,50898
Programming language,50898
Blood bank,50898
Nvivo,50898
Supersymmetry breaking,50898
Duplex ultrasonography,50898
Limerick,50898
heterokont,50898
Chosica,50898
tetracene,50898
emergency response team,50898
Carnegie collection,50898
Big Six,50898
Cuphea,50898
aortic sac,50898
iodite,50898
CGRP receptor antagonist,50898
Knowledge organization,50898
Ezetimibe,50898
ophthalmic surgery,50898
Saxagliptin,50898
strategic misrepresentation,71917
European Public Health Association,50898
Classical galactosemia,50898
gastropod shell,50898
contemporary Paganism,50898
transverse binary fission,50898
Schema matching,50898
Light energy,50898
Mandarin,50898
pancreas divisum,50898
thiocarbamates,50898
Pop Idol,50898
BVR,50898
Dealey Plaza,50898
Cataplexy,50898
Lenin,50898
dipnoan,50898
Majorana fermion,50898
product bundling,50898
photolithography,50898
Edward Snowden,50898
hemarthrosis,50898
NGA,50898
WZW model,50898
SGO1,50898
constructive principle,50898
coordination game,50898
Scientific communication,50898
federalism,50898
2017 national election,50898
Gravel pit,50898
hymen,50898
Competition policy,50898
punctuated equilibrium,50898
UK Infrared Telescope,50898
store-and-forward,50898
Otway,50898
ethnoecology,50898
"Phosphatidylinositol 3,5-bisphosphate",50898
LiDAR,50898
Nosocomial infections,50898
Extreme weather events,50898
Christian devotional literature,50898
Circumcision,50898
midkine,50898
Trichophyton,50898
Thyroid storm,50898
Loewner equation,50898
North Caucasus,50898
Nidopallium,50898
constitutional dictatorship,50898
Bayh-Dole Act,50898
The Energy Journal,50898
Ferroni,50898
Orpheus,50898
behavioral ecology,50898
genital schistosomiasis,50898
scramble competition,50898
Pepsin,50898
ISO 9000,50898
azadirachtin,71977
luxury good,71978
dural sinus thrombosis,50898
identification key,50898
Glucocerebrosidase,50898
toilet paper,50898
John Geometres,71983
Organotin,50898
teacher leadership,50898
CD134,50898
Color vision,50898
cork oak,50898
i8,71989
Robert Putnam,50898
Nonuya,50898
e-statistic,50898
myExperiment,50898
Attribution theory,71994
Pioneer plant,50898
Lipid transfer proteins,50898
suitability analysis,50898
Wikileaks,50898
Signal detection theory,50898
Parexus,50898
p-factor,50898
Beslan,50898
symbolic regression,50898
Rhabdomyolysis,50898
glottochronology,50898
Interprofessional education,50898
Sphingosine,50898
Geodia barretti,50898
Q-statistic,50898
alchemy,50898
Antilla,50898
morbid curiosity,72012
affine variety,50898
cell site,50898
eyeglasses,50898
food packaging,50898
Ballast water,50898
low-carbon society,50898
Epithelioid cell,50898
conformal boundary,50898
eigenvalue perturbation,50898
arc melting,50898
Arthrogryposis multiplex congenita,50898
Geometric Brownian Motion,50898
Portal vein embolization,50898
trade dress,50898
acetoacetyl-CoA thiolase,50898
uniformly approximated,50898
Vitreomacular adhesion,50898
umbral moonshine,50898
dispositional attribution,72031
humanitas,50898
prime pairs,50898
high-level language,50898
Cholangiocarcinoma,50898
oriented matroid,50898
European Psychiatric Association,50898
World Trade Organization (WTO),50898
Electronic prescribing,50898
"1,3-propanedithiol",50898
classic environment,72041
oil immersion,50898
S100A12,50898
Polyethylene terephthalate,50898
Machine politics,50898
communication deviance,50898
Urinary Tract Infections,50898
"Phosphatidylinositol 4,5-bisphosphate",50898
Russian Orthodox Church,50898
non-performing loan,50898
A 31,50898
Melasma,50898
/Film,50898
Primary structures,50898
mass surveillance,50898
Positive semidefinite,50898
evaluative conditioning,50898
Kabbalah,50898
typeface,50898
Electronic Health Record (EHR),50898
Vitamin K antagonist,50898
supercooled liquid,50898
Pedestrian detection,50898
debris disc,50898
Mediastinal,50898
Batavian Republic,50898
Lovastatin,50898
ICSU,50898
locally finite,50898
Port-a-Cath,50898
initial public offering (IPO),50898
Nancy Scheper-Hughes,50898
Quetiapine,50898
terahertz radiation,50898
intentional object,50898
excitable media,50898
English National Health Service,50898
participatory journalism,50898
behavior model,50898
Alefacept,50898
measure theory,50898
Emission spectroscopy,50898
ridesharing,50898
Hair removal,50898
Group sex,50898
Papiamento,50898
United Nations Environment Program,50898
Fine-needle aspiration,50898
wireless sensor network,50898
moonquakes,50898
congenital thrombophilia,50898
Photochemistry,50898
SOPHIE,50898
kesterite,50898
Frans H. van Eemeren,50898
phyletic,50898
human coronavirus 229E,50898
Roman Inderst,50898
Myelofibrosis,50898
Pectinoidea,50898
plosive,50898
Tyro,50898
Sarcina,50898
Kin recognition,50898
Moriscos,50898
resource-based view (RBV),50898
Pollen tube,50898
anagrelide,50898
cardiovascular physiology,50898
Lokono,50898
Global Cities,50898
Bottled water,50898
Boden,50898
Progressive macular hypomelanosis,50898
Decompression sickness,50898
QuBE,50898
indirect rule,50898
plant field,50898
multimode fiber,50898
East Atlantic Flyway,50898
The pay-off,50898
game theoretical,50898
iota Orionis,50898
Bologna,50898
bereitschaftspotential,50898
GRU,50898
Relativistic plasma,50898
Community-acquired pneumonia,50898
premaxilla,50898
petioles,50898
Earth system science,50898
embedded computer,50898
Bornean orangutan,50898
Multi-model,50898
Mast cell,50898
Posterior inferior cerebellar artery,50898
Person-centered care,50898
Organizational studies,50898
Respiratory tract,50898
CAMEL,50898
medical residency,50898
active ageing,50898
Thingiverse,50898
Fuzzy logic,50898
renormalisation group,50898
Aquaporin,50898
Jean-Jacques Rousseau,50898
Insulin-dependent diabetes mellitus,50898
Laminectomy,50898
DWS,50898
Dense deposit disease,50898
MD-2,50898
location-based advertising,50898
Rob Carter,50898
diagonalizable,50898
key decisions,50898
Mazon Creek,50898
chiral auxiliaries,50898
abstract interpretation,50898
house gecko,50898
Warren Weaver,50898
The catheters,50898
irreflexive,50898
Bird flight,50898
revanchism,50898
Choline kinase,50898
opinion poll,50898
Pehuenche,50898
essential drug,50898
private equity,50898
Lysin,50898
dividend policy,50898
2007 Irish general election,50898
life annuity,50898
Semantic feature,50898
blood fluke,50898
elasmosaurid,50898
Fludarabine,50898
Cerebrotendinous xanthomatosis,50898
Osteomyelitis,50898
epigenetic memory,50898
Scrub typhus,50898
colobine,50898
Flavins,50898
SHF,50898
interoceptive sensations,50898
Coral reef,50898
Islamic criminal law,50898
Lucifer,50898
abdominal palpation,50898
preening,50898
sea sponge,50898
purpurin,50898
Coagulation factor,50898
molecular phylogenies,50898
Hoverflies,50898
food court,50898
elective affinity,50898
Young boys,50898
Pomegranate,50898
microsaccade,50898
market discipline,50898
Dutch book,50898
AISI,50898
money flow,50898
German reunification,50898
baleen,50898
Human smuggling,50898
Reverse Mathematics,50898
Diltiazem,50898
Afro-Brazilian,50898
multicomponent diffusion,50898
Evidence based medicine,50898
NAGA,50898
Muckle-Wells Syndrome,50898
thyroidology,50898
21 Grams,50898
Gelatin,50898
Newtonian fluids,50898
consumer law,50898
Juvenile idiopathic arthritis,50898
Pneumolysin,50898
relaxer,50898
Salmonellosis,50898
Breast cancer screening,50898
Victorian era,50898
Palpitations,50898
Euromod,50898
Weyl algebra,50898
Pebble accretion,50898
Chronic Obstructive Pulmonary Disease,50898
Systematics Association,50898
GTR,50898
Adenosine triphosphate,50898
Sporopollenin,50898
media responsibility,50898
system-on-chip,50898
Richard Rorty,50898
shaving,50898
triterpene,50898
free functor,50898
video game emulation,50898
Thunderclap headache,50898
Child discipline,50898
rufigallol,50898
Berbice,50898
Silodosin,50898
Lucentis,50898
Metal-organic Frameworks,50898
diplomatic asylum,50898
Dasatinib,50898
Eumalacostraca,50898
medoids,50898
NYHA functional class,50898
polyphenol oxidase,50898
KCND2,50898
Alouatta,50898
ketolysis,50898
circulatory shock,50898
MS2 phage,50898
flux footprint,50898
Pectinidae,50898
future 3,50898
solid gold,50898
R-CHOP,50898
Delta-like 1,50898
HOTAIR,50898
ses,50898
common wheat,50898
Werther,50898
Eriophyidae,50898
underlying space,50898
SEPT2,50898
Brugia malayi,50898
Mitral regurgitation,50898
Snowden,50898
Hst-2,50898
SYT,50898
UAC,50898
CFRA,50898
schema matching,50898
contactin-2,50898
Ph1,50898
TND,50898
ABCA8,50898
BAMSE,50898
micellization,50898
Sleeping Dogs,50898
word formation,50898
Feature selection,50898
18S rDNA,50898
black eagle,50898
Quinpirole,50898
Maculinea alcon,50898
southern Red Sea,50898
prosencephalon,50898
Patagonia,50898
rhinal cortex,50898
metaphysical realism,50898
CheB,50898
causalgia,50898
haematite,50898
Paro,50898
Box-Cox transformation,50898
United Nations Development Programme,50898
Agnosticism,50898
tretinoin,50898
fufu,50898
SPECINT,50898
marginal density,50898
Western Cape government,50898
nasal cartilages,50898
Coralliophila,50898
uncompetitive inhibition,50898
realized kernel,50898
half-light radius,50898
waterline,50898
Tb-1,50898
methanation,50898
Hyperbaric oxygen therapy,50898
arcsecond,50898
highest pressure,50898
constructive mathematics,50898
L. meridionalis,50898
CEPR,50898
perseverative cognition,50898
superfluidity,50898
Paracelsian,50898
test strategy,50898
enemy images,50898
Niemeier lattices,50898
SLC47A1,50898
The brightness,50898
MPPG,50898
Doppler method,50898
solanaceous,50898
type VIIC,50898
saxagliptin,50898
L dwarf,50898
UAV,50898
Laser hair removal,50898
sec-butyllithium,50898
gastrointestinal haemorrhage,50898
industrial agriculture,50898
Tellus,50898
semiminor axis,50898
walrus,50898
VAG,50898
shock therapy,50898
cobra,50898
Trachylepis,50898
IJsselmeer,50898
D12,50898
terminology server,50898
Lavigeria,50898
N. tenuis,50898
left gastric artery,50898
MICE,50898
gamma-sarcoglycan,50898
XMRV,50898
interbellum,50898
MOJAVE,50898
Geometridae,50898
biomimetics,50898
manometer,50898
Galactosemia,50898
Leukotriene,50898
Primary production,50898
smoothing splines,50898
KEL,50898
Witten conjecture,50898
coecum,50898
inner-shell electrons,50898
dandelion,50898
The hub,50898
inverse-variance weighting,50898
microhematuria,50898
equivocation,50898
Caterpillar,50898
Roche Molecular Systems,50898
Islamisation,50898
WhatsApp,50898
segmental artery,50898
SNX1,50898
intergenic sequences,50898
arable field,50898
mass gap,50898
ferric oxide,50898
unimodal function,50898
Cryptochiridae,50898
Ingush,50898
Dosse,50898
uremic pericarditis,50898
ZFPM2,50898
FedEx Express,50898
presacral teratoma,50898
MN1,50898
long non-coding RNA,50898
dihydroalprenolol,50898
CG10,50898
Ghent criteria,50898
extinction threshold,50898
specific volume,50898
objectivism,50898
South Atlantic Ocean,50898
EMR3,50898
Christmas tree worm,50898
rotationplasty,50898
International Social Science Council,50898
LF1,50898
Mycobacterium africanum,50898
German literature,50898
PetCO,50898
CDK12,50898
OPDA,50898
MDM4,50898
ossified,50898
preformationist,50898
MRNA,50898
AmelX,50898
mumps virus,50898
"Latina, Italy",50898
sex change,50898
NMSSM,50898
Guanine,50898
systemic scleroderma,50898
sTF,50898
self-driving cars,50898
lamda,50898
olivary pretectal nucleus,50898
Cerebrovascular accident,50898
salt weathering,50898
Harmony Day,50898
Sn(II),50898
Cumberland,50898
interleukin-23,50898
flibanserin,50898
TatA,50898
intermodulation distortion,50898
DQ5,50898
lookahead,50898
Atp8b1,50898
A27,50898
complex function,50898
Myrmica,50898
NBM,50898
nested logit,50898
Trichuris,50898
asymmetric carbon,50898
neoantigen,50898
NGC 6397,50898
oligodactyly,50898
ursodiol,50898
focalization,50898
posology,50898
NTB,50898
siamang,50898
Sun-like stars,50898
formal grammar,50898
Ariel 5,50898
SDML,50898
Tamale,50898
Wnt4,50898
Logical Form,50898
driving simulator,50898
Hyalella,50898
Ictinaetus,50898
liquidus,50898
molecular beacons,50898
trapezium,50898
CNX,50898
pain catastrophizing scale,50898
Actinoalloteichus,50898
evanescent waves,50898
ABCA2,50898
wave phase,50898
Talibanization,50898
medical anthropology,50898
wormhole,50898
mothers-in-law,50898
GCb,50898
Neoplasm,50898
CAV1,50898
anthropologist,50898
Carboxyfluorescein,50898
Mlh1,50898
ferric chloride,50898
cryosection,50898
neuronal cell adhesion molecule,50898
Surfacing,50898
Chromothripsis,50898
PXR,50898
gastric pits,50898
"2,3-butanediol",50898
ancien regime,50898
unguarded,50898
Group R,50898
liberal nationalism,50898
potassium perchlorate,50898
saprobic,50898
Jewish identity,50898
M82,50898
Eliphas Levi,50898
H16,50898
AFDW,50898
tianeptine,50898
Bolshevik,50898
NGC 1705,50898
Daniel Heinsius,50898
cold case,50898
kinematic viscosity,50898
Crew Resource Management,50898
Genome-wide complex trait analysis,50898
Assange,50898
nm23,50898
tiapride,50898
PRBC,50898
Diving activities,50898
palatine bone,50898
FedEx,50898
Flounder,50898
MsrB,50898
ApoER2,50898
scapulocoracoid,50898
Levenberg-Marquardt,50898
sartorius,50898
Cilliba,50898
Classical conditioning,50898
National Health Interview Survey,50898
homeostatic plasticity,50898
carob moth,50898
micro-gravity,50898
MCM8,50898
pericranium,50898
parrot,50898
phytogeographic,50898
SSX,50898
Macular hole,50898
GDAP1,50898
LVSF,50898
KCND3,50898
Symphalangus,50898
DIEP flap,50898
nul,50898
mesocolon,50898
UICC,50898
M. hiemalis,50898
P. mascareniensis,50898
CYBA,50898
Cosmic Vision,50898
tsc2,50898
vincristin,50898
Woodpecker,50898
North Caucasian peoples,50898
endoscopic group,50898
Generalized linear model,50898
radical pair mechanism,50898
ecdysone,50898
Avellino eruption,50898
Yungas,50898
planetary health,50898
pancreatic duct cell,50898
Paralaxita,50898
alpha-1 antitrypsin,50898
Francis Fukuyama,50898
s-process,50898
code switch,50898
Control data,50898
Hutchinson-Gilford progeria syndrome,50898
boarding school,50898
RNASET2,50898
Galactic cirrus,50898
Diagnostic ultrasound,50898
adsorption chromatography,50898
RTL,50898
thermal flux,50898
representational difference analysis,50898
logarithmic space,50898
Marimastat,50898
IGBP,50898
zone fossil,50898
autoimmune regulator,50898
Shapiro delay,50898
fibular fracture,50898
host model,50898
wave height,50898
lixisenatide,50898
Hypaque,50898
du Val singularities,50898
Be/X-ray binaries,50898
standardized rate,50898
AVID,50898
pretracheal,50898
ADAs,50898
liability threshold model,50898
fluorimeter,50898
AEA Technology,50898
ICD-9-CM,50898
United Nations University (UNU),50898
Paganism,50898
VaI,50898
Bessel function,50898
two-point function,50898
Marder,50898
nanoemulsion,50898
VKORC1,50898
ZINDO,50898
thermodynamic efficiency,50898
epigenesis,50898
Castro,50898
high-throughput datasets,50898
erk1/2,50898
Fledging,50898
solid organ transplant,50898
CCA1,50898
Granger Causality,50898
pralidoxime,50898
LaB6,50898
Lichtenstein,50898
LDV,50898
pro rata,50898
semi-minor axis,50898
"receptors, retinoic acid",50898
pulse-chase analysis,50898
TNNT2,50898
sorbs,50898
keratohyalin,50898
late endosomal,50898
Vygotsky,50898
HOM,50898
obstetrical complications,50898
kWh,50898
Penrose diagram,50898
free alternative,50898
systems architecture,50898
searchlight,50898
NFIX,50898
The vortex,50898
urogynecology,50898
MJup,50898
fetoplacental circulation,50898
TAGS,50898
Testate,50898
dimensionless unit,50898
TGT,50898
Metallo,50898
child discipline,50898
Islamic law,50898
Trofile assay,50898
Harwell,50898
complete communities,50898
ABCB6,50898
NAIP,50898
basic shape,50898
TNNI3,50898
abcg8,50898
zona incerta,50898
Montevideo,50898
T-10,50898
Eculizumab,50898
MCM10,50898
Eurosids I,50898
conchological,50898
palmar crease,50898
RNA Pol III,50898
infomax,50898
specific density,50898
pelvic cavity,50898
sirtuins,50898
Frykman classification,50898
L-pipecolate,50898
trimix,50898
network analyzer,50898
Gaussian filter,50898
miliaria rubra,50898
unequal exchange,50898
Greek tragedy,50898
atheromatous plaque,50898
Westphalia,50898
FWER,50898
Lufenuron,50898
IRAK4,50898
PER2,50898
WF6,50898
R10000,50898
mossy fibre,50898
PXMP3,50898
PEX16,50898
Golden Dawn,50898
Balthazar,50898
alpha-carotene,50898
Bayer AG,50898
Cabala,50898
melasma,50898
EADs,50898
Picus,50898
ZW,50898
BFPP,50898
clinical dementia rating scale,50898
Hypothalamic-pituitary-adrenal axis,50898
cannabinoid receptor 2,50898
precognition,50898
paedomorphic,50898
Plant hormones,50898
Coombs test,50898
psyllium,50898
vacuolisation,50898
Hii region,50898
Specific Absorption Rate,50898
neo-Nazism,50898
Sodium chloride,50898
Cen X-3,50898
TC-2,50898
near-threatened species,50898
Psychological stress,50898
Axin2,50898
weighted-average,50898
CSF1R,50898
ugt1,50898
random tree,50898
Law Dome,50898
PMCH,50898
Istanbul Protocol,50898
CheR,50898
premelting,50898
metacommunity,50898
left inferior pulmonary vein,50898
Immune sera,50898
esophageal candidiasis,50898
Aarhus University Hospital,50898
quantitative scoring,50898
Aleister Crowley,50898
Hapmap,50898
planetary-mass object,50898
Cerrado,50898
Complex V,50898
skin sensation,50898
nuclear reprocessing,50898
PCSK1,50898
high crystal,50898
"catechol 2,3-dioxygenase",50898
Hexanal,50898
stellar classification,50898
Epsilon,50898
Mascarenes,50898
CCRL2,50898
Treponema pallidum particle agglutination assay,50898
SN 1979C,50898
Great Slaty Woodpecker,50898
Nasogastric intubation,50898
Mammograms,50898
eumalacostracan,50898
Likelihood function,50898
FAB1,50898
high evolutionary,50898
orbital surface,50898
EHR.,50898
potential flow,50898
five-year survival rate,50898
preformation,50898
synforms,50898
NCF2,50898
Marmoset,50898
coded mask,50898
tsh,50898
ICAM3,50898
Astma,50898
Ectopic pregnancy,50898
Plakoglobin,50898
MCLR,50898
Group S,50898
Mascarene,50898
Sus scrofa scrofa,50898
TNM Stage,50898
Ypthima,50898
forced-air,50898
pentadecane,50898
synaptosomal-associated protein 25,50898
Goblet cells,50898
gatifloxacin,50898
SPEX,50898
lufenuron,50898
Statistical process control,50898
NST,50898
Ditrysia,50898
North East Africa,50898
anorthite,50898
Omicron,50898
molecular partners,50898
n-word,50898
fin de siecle,50898
suction power,50898
cP,50898
interphotoreceptor retinoid-binding protein,50898
patch clamping,50898
Mulleripicus,50898
MTS assay,50898
inviscid,50898
eculizumab,50898
Senyera,50898
New York State,50898
Constructivist,50898
LCAO method,50898
tube worm,50898
ABCC2,50898
complexity class,50898
vertical banded gastroplasty,50898
microscopics,50898
Decision trees,50898
diastasis,50898
ALK5,50898
SD 46,50898
olfactory tracts,50898
DIRBE,50898
gonioscopy,50898
Carlarius heudelotii,50898
Vice President,50898
Laser Interferometer Space Antenna,50898
silicon drift detectors,50898
Pupillometry,50898
Local Void,50898
LEF,50898
chondrichthyan,50898
IL-23R,50898
accretion theory,50898
anterior cerebral arteries,50898
pentafluorobenzene,50898
flood geology,50898
detrital zircon ages,50898
hypoplastic lungs,50898
Tobacco control,50898
septin,50898
fiber bundle,50898
ABCC3,50898
chromospherically,50898
ocean stations,50898
Caspases,50898
plantain,50898
terminus ante quem,50898
100 hours,50898
DC101,50898
spirochaetes,50898
Cervus,50898
typhus,50898
vascular endothelial growth factor receptor 2,50898
ZAS,50898
Dactylitis,50898
hexose monophosphate shunt,50898
Sampling error,50898
galactose-1-phosphate,50898
thrombocythemia,50898
posterior communicating artery,50898
acetyl-CoA hydrolase,50898
SKK,50898
venograms,50898
Apoditrysia,50898
Prothrombin complex concentrate,50898
Ripley,50898
Stokes flow,50898
cup-to-disc ratio,50898
septum primum,50898
MPc2,50898
Teide,50898
kuru,50898
cold cathode,50898
Blanchard R,50898
backswamp,50898
loop 256,50898
L-value,50898
Amanita,50898
Rab proteins,50898
occultism,50898
Rev-erba,50898
A+E,50898
planning gain,50898
acetolactate synthase,50898
Barbital,50898
Western Sydney,50898
Brucella,50898
aspergillus,50898
viologen,50898
Dothideales,50898
Banda arc,50898
Rodrigues,50898
"catechol 1,2-dioxygenase",50898
telomere-binding protein,50898
HGO,50898
GTPase-Activating Protein,50898
Phan Thiet,50898
Relative frequency,50898
Teledermatology,50898
pull-up,50898
SCN2B,50898
European Research Area,50898
vesnarinone,50898
Hessenberg,50898
R132,50898
TRF2,50898
co-amoxiclav,50898
HZO,50898
alchemical,50898
HOXA,50898
periodic wave,50898
umbilical cord blood transplantation,50898
scalene muscles,50898
afterdrop,50898
fexofenadine,50898
iatrogenically,50898
optical telecommunication,50898
weather forecasting,50898
magnetocrystalline anisotropy energy,50898
thunderclap headache,50898
Laccaria,50898
bovis,50898
hepatic vein thrombosis,50898
A47,50898
Interventricular septum,50898
topographic relief,50898
hydrological discharge,50898
SCN3B,50898
Rescaled range,50898
HBA2,50898
resource estimation,50898
SSX2,50898
dural sinuses,50898
South West Africa,50898
Lycopodium,50898
Andaman Sea,50898
D. pseudoobscura,50898
cheek pouch,50898
chlorhexidine gluconate,50898
autoinflammatory disease,50898
Willi Hennig Society,50898
Norse Pagans,50898
OctaPharma,50898
ivory trade,50898
deep nuclei,50898
co-NP-complete,50898
choice tests,50898
Fuentes,50898
odonate,50898
feruloyl,50898
NGC 1569,50898
MMP3,50898
hepatic cirrhosis,50898
observational bias,50898
optic canal,50898
retinyl acetate,50898
BCL9,50898
Overijssel,50898
Capreolus capreolus,50898
IGE,50898
ceramide synthase 1,50898
gravitational constant,50898
phosphoketolase,50898
Wigle,50898
semi-major axes,50898
flowing rivers,50898
scaffold protein,50898
NCF4,50898
termination shock,50898
immune sera,50898
GPLD1,50898
volatile anesthetics,50898
Wasserman,50898
Oct4,50898
open aortic surgery,50898
ebastine,50898
SCOAP3,50898
spinocerebellar ataxias,50898
capacity utilization,50898
oligochaetes,50898
eggwhite,50898
transfer DNA,50898
throughflow,50898
TSTT,50898
Factor V,50898
ontogenetically,50898
MIR,50898
acentric chromosome,50898
Alpine lake,50898
cyanovirin-N,50898
Beer-Lambert law,50898
Lactarius,50898
zoea,50898
methanogen,50898
magnetic domains,50898
Leuconostoc mesenteroides,50898
SCHC,50898
Vcam-1,50898
Ralstonia pickettii,50898
orlistat,50898
ABCC10,50898
megalopa,50898
bloodpool,50898
genetic code,50898
Acute respiratory distress syndrome,50898
radio halo,50898
central tolerance,50898
bonebed,50898
Gramineae,50898
Norse religion,50898
Nox1,50898
penicilliosis,50898
desulfurization,50898
Contactin-2,50898
snRNP,50898
mesa,50898
evagination,50898
ascending node,50898
fetal macrosomia,50898
neo-Calvinist,50898
Delamerian Orogen,50898
VSE,50898
lac repressor,50898
Moheli,50898
monophagy,50898
1-pentanol,50898
Doxazosin,50898
immune rejection,50898
metapneumovirus,50898
TRPM8,50898
allantoin,50898
magnetic levitation,50898
cerebra,50898
red colour,50898
MIBC,50898
Gout,50898
Cortinarius,50898
RMCP,50898
knowledge models,50898
reaction equilibrium constant,50898
traffic simulation,50898
levator muscle,50898
Perseus arm,50898
Bcl-X(L),50898
Lef1,50898
femtolitre,50898
Mangoro,50898
Versus 2,50898
Sp7,50898
Motif,50898
binary compound,50898
non-archimedean local field,50898
No air,50898
diethyl sulfide,50898
VMD,50898
unmanned aerial vehicles (UAVs),50898
department store,50898
Put option,50898
myeloproliferative neoplasm,50898
Psycholinguistic,50898
cytoarchitecturally,50898
Rockwood,50898
Einstein-Rosen bridge,50898
rial,50898
synovigenic,50898
John McDowell,50898
Hub van Doorne,50898
Margaret Lock,50898
sustainable diet,50898
BRST symmetry,50898
fluidised bed,50898
Punica granatum,50898
sensory unit,50898
peripheral nerve block,50898
solar dynamo,50898
Humanitas,50898
multi exposure,50898
Sierra Nevada,50898
temporary restraining order,50898
matroid,50898
Social norm,50898
Thurstone Scale,50898
respiratory sounds,50898
Grimm,50898
Davey,50898
Eastern Caribbean,50898
Durango,50898
x2x,50898
Dahrendorf,50898
Smooth Tongue,50898
roguing,50898
X-ray Detector,50898
community links,50898
Ain Draham,50898
reading motivation,50898
carpometacarpal,50898
Buffon,50898
neurogastroenterology,50898
Schwalbe,50898
Goal setting,50898
symplectic vector space,50898
THBS1,50898
mobbing behaviour,50898
palaearctic,50898
Fluxnet,50898
magnifying glass,50898
cancer immunotherapies,50898
Pacific Island Region,50898
low-level language,50898
red herring,50898
scan 20,50898
Israelites,50898
Ossetians,50898
localism,50898
Free State Province,50898
relational semantics,50898
blepharophimosis,50898
sesterterpene,50898
total preorder,50898
vox populi,50898
exertional angina,50898
Zonnestraal,50898
La Grande,50898
lignification,50898
Confocal Microscopy,50898
drug rehabilitation,50898
Tesero,50898
life support,50898
Honduras,50898
Phloem,50898
tax competition,50898
Fuego,50898
dual tensor,50898
skewer,50898
sister species,50898
Nutrition transition,50898
Tokyo Tribunal,50898
content-addressable memory,50898
particle number density,50898
bar graph,50898
pteridine,50898
hematinic,50898
Propeamussiidae,50898
partitive,50898
BioCatalogue,50898
Five Factor Model,50898
Hypoventilation,50898
helper virus,50898
worst case scenarios,50898
iobenguane,50898
Mastermind,50898
psychological warfare,50898
Ecological niche,50898
circular economy,50898
Pernis apivorus,50898
television stories,50898
Czeslaw Milosz,50898
heat engine,72041
Donald Winnicott,50898
tibiofibular syndesmosis,50898
gender-blind,50898
Persistent Organic Pollutants (POPs),50898
pre-employment screening,50898
Confucianism,50898
pure spinor,50898
solvency II,50898
citizen journalism,50898
AMSAN,50898
Swine Fever,50898
Introspection,50898
Trichoderma reesei,50898
Museum Studies,50898
Agassiz,50898
directed edge,50898
IAPS,50898
Freon,50898
discourse ethics,50898
Greeks,50898
chickenpox,50898
socio-ecological system,50898
binary star,50898
Mansoori,50898
SURF,50898
film studies,50898
inclusive/exclusive,50898
uniform limit,50898
plesiosaur,50898
Feasibility study,50898
Alejandro,50898
Good Laboratory Practice,50898
hemispheric dominance,50898
megalodon,50898
mentalization based treatment,50898
Gnetum,50898
The chairs,50898
Spanish National Statistics Institute,50898
stylometric,50898
Otley,50898
Banda Sea,50898
unimodular,50898
G protein-coupled bile acid receptor,50898
business-to-business,50898
Pachymatisma johnstonia,50898
Savage,50898
bounded distributive lattices,50898
North Ossetia,50898
mathematical function,50898
ready-made garment,50898
Determinacy,50898
programming tool,50898
Dressler,50898
Diadema antillarum,50898
carbon credit,50898
hypertensive urgencies,50898
Bryophyte,50898
US weekly,50898
sensory pleasure,50898
beta Lyrae,50898
Common European Asylum System,50898
negative cost,50898
androgynous,50898
Lamfalussy process,50898
affinely independent,50898
take-out,50898
cognitive dissonance theory,50898
General Linear Model,50898
Diffuse Interstellar Bands,50898
Copycats,50898
Gender Empowerment Measure,50898
image stabilization,50898
Information Extraction,50898
Gilligan,50898
State ownership,50898
car rental,50898
bedding plant,50898
sociative,50898
merger control,50898
KMD,50898
space form,50898
Lake Qinghai,50898
proteolipids,50898
Neodymium,50898
ERoEI,50898
Electromagnetically induced transparency,50898
gamma Velorum,50898
hidden cost,50898
viceversa,50898
Wired magazine,50898
pebble accretion,50898
Candomble,50898
methanotrophic,50898
continental records,50898
NOXA,50898
choroidal tumor,50898
Dialectical behavior therapy,50898
cytochalasin,50898
nitrogen narcosis,50898
neuston,50898
alefacept,50898
ABCC11,50898
Zucker KJ,50898
Selwyn,50898
FHL5,50898
Packed red blood cells,50898
Addison,50898
dinosaur,50898
melanopsin,50898
farnesyltransferase,50898
recombinant technology,50898
Neurospora,50898
acoustic pressure,50898
Digital mammography,50898
Xerocomus,50898
RDFS,50898
OCA,50898
qSOFA,50898
Bay K8644,50898
serodiscordant,50898
NNAT,50898
Kabbalistic,50898
walnut oil,50898
Parvovirinae,50898
TOSC,50898
Fagopyrum esculentum,50898
Asatru,50898
myosin ATPase,50898
Giant cell,50898
Cardiovascular Research Centre,50898
Fresh frozen plasma,50898
bridge bearing,50898
northern areas,50898
graecus,50898
Fulde-Ferrell-Larkin-Ovchinnikov,50898
UNG,50898
sub-Poissonian,50898
hedgehog protein,50898
Safronov,50898
outer mitochondrial membrane,50898
ABCC12,50898
scalene muscle,50898
renin inhibitor,50898
pterosaur,50898
PSR J0737-3039,50898
inferior oblique muscle,50898
ultraluminous infrared galaxy,50898
Hessenberg matrices,50898
L. rhamnosus GG,50898
Jak2,50898
Buoyancy,50898
neo-Calvinism,50898
S. boydii,50898
north-south axis,50898
Ks-band,50898
pulmonary thromboendarterectomy,50898
Mallotus,50898
OCA1,50898
heat-labile enterotoxin,50898
stormwater,50898
Ancylostoma duodenale,50898
morphological trait,50898
ABCE1,50898
Lusaka,50898
aliskiren,50898
creole language,50898
HtrA2,50898
PCM1,50898
SEPT6,50898
bromelain,50898
Directly observed therapy,50898
neuromuscular blockers,50898
FARP1,50898
merit order,50898
Pseudochironomus,50898
landscape history,50898
rally,50898
Dynamic light scattering,50898
SLC19A3,50898
alveolar epithelial cell,50898
knockout mutation,50898
intramyocellular lipids,50898
Halichondria,50898
Juglandaceae,50898
flocculate,50898
Alcian Blue,50898
calcium signalling,50898
HIV-1 group M,50898
Benzoquinone,50898
Gemfibrozil,50898
neural induction,50898
Anacardiaceae,50898
Clavulina,50898
DNA oxidation,50898
Tocilizumab,50898
Tyk2,50898
cry wolf,50898
guillemot,50898
KAHL,50898
Polypedilum,50898
Necator americanus,50898
CC BY 4.0,50898
Complex network,50898
megarectum,50898
piecemeal necrosis,50898
Nitrofurantoin,50898
strong reaction,50898
hyperimmunization,50898
immunoediting,50898
RBT,50898
Tanytarsini,50898
HBOs,50898
PAX3,50898
ejection phase,50898
Kalahari,50898
dialectical behavior therapy,50898
polycomb-group proteins,50898
Ty2,50898
Troponin,50898
antheraxanthin,50898
type-V collagen,50898
TARBP2,50898
L. borealis,50898
SN 1998S,50898
Cricotopus,50898
Hymeniacidon perlevis,50898
Janse,50898
HEMI,50898
Werkhoven,50898
TRA@,50898
linked open data,50898
Desmin,50898
VIL,50898
leukemogenic,50898
ad-lib,50898
M. anisopliae,50898
l'apparition,50898
PAK7,50898
M 81,50898
Central Italy,50898
fiducial marker,50898
Uria lomvia,50898
myocardial perfusion scan,50898
glycoproteomics,50898
great cardiac vein,50898
sophorose,50898
Glucose transporter,50898
terrestrial planet,50898
FKHR,50898
sterile technique,50898
PURPLE HAZE,50898
nociceptors,50898
Chironomini,50898
Aesch,50898
PEX3,50898
Bolton,50898
Perseverative cognition,50898
AlAl,50898
Weltevreden,50898
Paratrichocladius,50898
esophageal stricture,50898
Ultracentrifugation,50898
V2 language,50898
Beta cell,50898
NE Monsoon,50898
Pericardium,50898
The QuBE,50898
CPT1A,50898
SREBF1,50898
6-phosphogluconate dehydrogenase,50898
Earth orbit,50898
Fexofenadine,50898
Thrombocytosis,50898
PHZ,50898
vim,50898
Goiter,50898
The tape,50898
Polle,50898
complementary distribution,50898
sion,50898
Seelen,50898
de 1,50898
arctic fox,50898
apoenzyme,50898
xena,50898
Acriflavine,50898
Flibanserin,50898
future ocean,50898
bank filtration,50898
Christian Knorr von Rosenroth,50898
Electron tomography,50898
Ibritumomab tiuxetan,50898
Critical role,50898
crustal recycling,50898
GABAa receptor,50898
CECT,50898
myeloproliferative disease,50898
VPAC2,50898
Kabbala Denudata,50898
DEEP PURPLE,50898
neuronal calcium sensor-1,50898
Irx5,50898
Kant-Studien,50898
Mortierellales,50898
Umbelliferae,50898
Sotalol,50898
Uremia,50898
angiotensin receptor blockers,50898
CYP3A7,50898
beta-ketothiolase deficiency,50898
courante,50898
petunidin,50898
Apgar Score,50898
DVL3,50898
mitosporic,50898
Coorong,50898
molluscivorus,50898
gastrula,50898
Vascularity,50898
Bacteremia,50898
Sexual dimorphism,50898
Globidens,50898
Kv4.3,50898
carbamoyl phosphate synthetase,50898
Dab1,50898
DDB2,50898
Superresolution,50898
RaC2,50898
Interleukin 8,50898
TAP-2,50898
aldehyde oxidase,50898
Berlusconi,50898
Hoplocarida,50898
2C-E,50898
social constructivist,50898
Rapid prototyping,50898
Physica A,50898
surveillant,50898
cyclin-dependent kinases (CDKs),50898
hot classical,50898
E!,50898
apricot,50898
pulmonary adenocarcinoma,50898
Leges,50898
Epode,50898
iron phosphate,50898
ginkgo,50898
industrial unionism,50898
semi-simple,50898
L'Intrus,50898
exponential space,50898
Svalbard Archipelago,50898
T-bill,50898
NOMID,50898
Manchester Airport,50898
postmenopausal bleeding,50898
fibrous lesions,50898
Pieter Teyler van der Hulst,50898
biological survey,50898
generational replacement,50898
Danube Delta,50898
myrmecophily,50898
Helianthemum,50898
ligatures,50898
gammaproteobacterium,50898
physical oceanography,50898
Uluguru Mountains,50898
Parallel computing,50898
Experiencer,50898
Flint,50898
short time Fourier transform,50898
Alpine orogeny,50898
damage-associated molecular pattern,50898
hexagonal close-packed,50898
unplanned parenthood,50898
Pagan,50898
Rorty,50898
parthenogenic,50898
product form stationary distribution,50898
15q11-13,50898
Diego Garcia,50898
undersampling,50898
acute angle-closure glaucoma,50898
Gampaha district,50898
laser hair removal,50898
Information extraction,50898
BRST,50898
tender offer,50898
tidal heating,50898
ChIP-Seq,50898
Diffuse Reflectance Infrared Fourier Transform,50898
roseophilin,50898
Cascina,50898
Dignitas,50898
Instructional Design,50898
floating voters,50898
black drongo,50898
Scedosporium apiospermum,50898
load balance,50898
polydextrose,50898
Global Environment Facility (GEF),50898
100-year flood,50898
arranger,50898
cognitive rehabilitation therapy,50898
Dual-energy X-ray absorptiometry,50898
political risk,50898
Philippi,50898
Charcot foot,50898
coordination problem,50898
The superficial,50898
e87,50898
planned languages,50898
faraway places,50898
Dirichlet boundary conditions,50898
Necroptosis,50898
copper (II) chloride,50898
extensively drug-resistant TB,50898
Transparency International,50898
supercritical fluids,50898
6-Mercaptopurine,50898
Gaasbeek,50898
abductor pollicis longus,50898
Franeker,50898
Turing reducibility,50898
Septicaemia,50898
atovaquone/proguanil,50898
Melanoides tuberculata,50898
arachis,50898
malloc,50898
brucellosis,50898
island arc,50898
russet,50898
BTI,50898
yangian,50898
evolutionary trade-off,50898
antineutrophil cytoplasmic antibody,50898
human variability,50898
blood volume pulse,50898
polyaromatic hydrocarbon,50898
Grounded theory,50898
Winnicott,50898
exposure indices,50898
electronic health record (EHR),50898
pie chart,50898
content determination,50898
Michoacan,50898
mirids,50898
affiliated university,50898
KdV hierarchy,50898
LIBE,50898
petrophysics,50898
qualia,50898
German Sign Language,50898
northern sector,50898
Duitama,50898
greater bank,50898
salamander,50898
Planaria,50898
Plinian,50898
Femto,50898
Corporal punishment,50898
red cell deformability,50898
Bundestag,50898
pyridoxal-5'-phosphate,50898
Eucalyptus grandis,50898
3-iodothyronamine,50898
leukemoid reaction,50898
pityriasis versicolor,50898
parliamentary democracy,50898
"1,3-dichlorobenzene",50898
bilateral frontoparietal polymicrogyria,50898
Ball valve,50898
Entoliidae,50898
Munsell,50898
Nusselt number,50898
D-glucosamine,50898
Subarctic,50898
Alaris,50898
adaptive refinement,50898
pontocerebellar hypoplasia,50898
Mandarin Chinese,50898
Thematic Apperception Test,50898
weak decay,50898
Karl Kautsky,50898
International Cometary Explorer,50898
Academic department,50898
Suberites,50898
ecotope,50898
continuous map,50898
Activity monitor,50898
infimum,50898
political machine,50898
Global Land Project,50898
emergency response unit,50898
Lambda cold dark matter,50898
Cofan,50898
Infrared Astronomical Satellite (IRAS),50898
Gettysburg,50898
septal hematoma,50898
radiative transport,50898
scanning tunneling microscope,50898
exact category,50898
buckminsterfullerene,50898
autonomous databases,50898
Muricidae,50898
Eijkman,50898
Entropy production,50898
Packard,50898
lentic,50898
Ifn gamma,50898
bioinformatically,50898
PML-RARA,50898
Prognathodon kianda,50898
NVT,50898
cabbage aphid,50898
sulfamethoxazole-trimethoprim,50898
SIDA,50898
trawling,50898
mitochondrial processing peptidase,50898
planula,50898
Obstructive jaundice,50898
Hylocomium splendens,50898
Brussels sprouts,50898
coronary restenosis,50898
K-alpha,50898
ALK1,50898
heterochrony,50898
Math1,50898
2-nonenal,50898
glycoside hydrolase family 17,50898
Actinidiaceae,50898
MYL4,50898
seliciclib,50898
M55,50898
Pleurozium schreberi,50898
paraplegic,50898
EGF-like domain,50898
secretory cell,50898
Toledo Mountains,50898
HBcAg,50898
typhoid vaccine,50898
hepatic veno-occlusive disease,50898
of8,50898
Vicente,50898
PPARg,50898
halflife,50898
Lixisenatide,50898
clinical surveillance,50898
Ann Surg,50898
myosin-II,50898
geq,50898
brain challenge,50898
cell organelle,50898
inhibits TNF-alpha,50898
KIM-1,50898
Potassium persulfate,50898
deadweight,50898
isobars,50898
Yang-Mills field,50898
basic helix-loop-helix transcription factors,50898
Finite Element Method,50898
Loango,50898
MILC,50898
Canakinumab,50898
neurological illness,50898
native code,50898
Gorringe Bank,50898
Enteral nutrition,50898
Kv4.2,50898
extortion,50898
SEPT5,50898
coccus,50898
Ptychadena mascareniensis,50898
Net Promoter Score,50898
M2 protein,50898
bid-ask spreads,50898
Flemish Bloc,50898
National Cooperative Research Act,50898
anomia,50898
Speuld,50898
Orion spur,50898
government success,50898
World Rugby,50898
Mediterranean sea,50898
fetal akinesia deformation sequence,50898
nitrogen-vacancy center,50898
general dynamics,50898
future systems,50898
VBA,50898
crystallographic texture,50898
lumped element model,50898
Surgency,50898
pdt,50898
Sao Paulo State,50898
longrun,50898
loose areolar tissue,50898
VDM,50898
generalized Tobit,50898
religiously unaffiliated,50898
Sunni,50898
Recursive partitioning,50898
longstanding conjecture,50898
Elodea,50898
stoning,50898
symplectic manifold,50898
west Antarctica,50898
anthelminthic,50898
linkage system,50898
sodium iodide,50898
Dicrurus macrocercus,50898
thyronamine,50898
romantic nationalism,50898
The Low Countries,50898
mustine,50898
CoRoT-9b,50898
Child marriage,50898
Robotic Optical Transient Search Experiment,50898
child actor,50898
phosphoinositide-dependent kinase-1,50898
ENI,50898
double loop,50898
Maxwell construction,50898
language ideologies,50898
Oneworld,50898
International Geosphere-Biosphere Programme,50898
Human Development Report,50898
AAALAC,50898
collimate,50898
flavor violation,50898
axisymmetry,50898
Hydroxychloroquine,50898
Chiang Rai,50898
atopic disorders,50898
Claire Denis,50898
organizational socialization,50898
fellow workers,50898
latent growth curve modeling,50898
Nephron,50898
MRI sequence,50898
Biosphere Reserve,50898
Bulbul,50898
Parvoviridae,50898
circular distribution,50898
Value chain,50898
2nm,50898
Neoseiulus paspalivorus,50898
clean technologies,50898
Caux,50898
fathom,50898
HIPAA,50898
substantial similarity,50898
Freya,50898
superintuitionistic,50898
value-at-risk (VaR),50898
matter-dominated,50898
normal boiling point,50898
Hydrogen bond,50898
genetic dominance,50898
United Nations Environment Programme (UNEP),50898
Turing complete,50898
classical field theory,50898
STFT,50898
Paul Ehrlich Institute,50898
out-of-the-money,50898
The dentists,50898
measurement error model,50898
dishwasher,50898
epidemiological transition,50898
Shewhart chart,50898
oedematous,50898
Social Influence,50898
AICA,50898
infraorbital margin,50898
geophysiology,50898
Eyal,50898
consumer rights,50898
Huckabee,50898
The fundamentals,50898
diagnostic ultrasound,50898
Berkovich space,50898
machine politics,50898
Swift J1756.9-2508,50898
sexually objectifying,50898
killing machine,50898
dermoid cysts,50898
finite-volume,50898
academy schools,50898
hypermnestra,50898
eastern Caribbean,50898
Dendranthema,50898
Mae,50898
hypoaesthesia,50898
Article 48,50898
negative concord,50898
Dautzenberg,50898
wholesale funding,50898
endangered languages,50898
point-of-sale,50898
eye dominance,50898
Coralliophilinae,50898
middle distillate,50898
Black-Scholes,50898
Bruhat-Tits building,50898
Wicca,50898
WCC,50898
Balearic shearwater,50898
perfectly matched layer,50898
surface blooms,50898
hydrocortisone acetate,50898
Gentianaceae,50898
crematory,50898
preganglionic sympathetic,50898
analogue modeling,50898
Prehypertension,50898
HK2,50898
ADP-ribosylation factor,50898
Renin,50898
etapa,50898
Amaranthaceae,50898
Chenopodiaceae,50898
MCL1,50898
Intercept Pharmaceuticals,50898
Habia,50898
mesopelagic fish,50898
presentacion,50898
ferromagnesian,50898
dias,50898
Perfect English,50898
Charybdis,50898
azo group,50898
gas dynamics,50898
Kelletia,50898
neuroendocrine cell,50898
lexical verb,50898
European Union decision,50898
Natural Orifice Translumenal Endoscopic Surgery,50898
Neppia,50898
propidium monoazide,50898
Vinex,50898
Smith-Waterman,50898
iron (III) oxide,50898
sinuosity,50898
Vienna Circle,50898
sarcoglycan,50898
Seychelles Islands,50898
direct current,50898
Indo-Surinamese,50898
X-ray Absorption Fine Structure,50898
subdirectly irreducible,50898
moonshine,50898
Blood culture,50898
NEURON,50898
Erica multiflora,50898
HuH7,50898
Kerinci Seblat National Park,50898
amplitude-modulated,50898
The x-rays,50898
energy norm,50898
creatine phosphate,50898
atom interferometry,50898
flight patterns,50898
pleural friction rub,50898
theoretical distributions,50898
DS2,50898
Aculops lycopersici,50898
Seymour,50898
Fermi velocity,50898
Western Province Rugby Union,50898
crystal model,50898
Shimizu,50898
Nazi,50898
artificial cell,50898
Greater Manchester,50898
Descartes,50898
Geometric analysis,50898
Kniest dysplasia,50898
Quark,50898
Latin Hypercube,50898
Northern League,50898
protoconch,50898
rivalrous,50898
Baryscapus,50898
food law,50898
Sep. 2,50898
ashy drongo,50898
Kahi,50898
LANGO,50898
mutual fund,50898
Dutch Caribbean,50898
Tanggu Railway Station,50898
Wald distribution,50898
interest rate risk,50898
perspective distortion,50898
official development assistance,50898
pre-frontal cortex,50898
External rotation,50898
greenhouse whitefly,50898
Austral Islands,50898
Royal Netherlands Navy,50898
Good laboratory practice,50898
Dirty Pretty Things,50898
Ectomyelois ceratoniae,50898
Otitis media,50898
percutaneous nephrostomy,50898
systemic sarcoidosis,50898
non-Newtonian flow,50898
anti-Scl-70 antibodies,50898
Frobenius,50898
transformation rule,50898
side winds,50898
macrogol,50898
Robert Hanna,50898
Passover,50898
Moses,50898
Compton backscattering,50898
Makassar Strait,50898
ball valve,50898
salt crystal,50898
Eemshaven,50898
posttranslational protein modification,50898
TROs,50898
bimalleolar fracture,50898
Western Cape Province,50898
Giovanni Pico della Mirandola,50898
deep cuts,50898
Orthogonal Polarization Spectral imaging,50898
customer survey,50898
high incident,50898
migrant worker,50898
lymphatic filariasis,50898
RDF Schema,50898
gammaretrovirus,50898
computer engineering,50898
glucose-6-phosphate dehydrogenase (G6PD) deficiency,50898
commercial bank,50898
Radical Right,50898
semiparametric regression,50898
Art Journal,50898
hospital accreditation,50898
anti-competitive behavior,50898
Kuhn length,50898
shari'a,50898
Teleman,50898
half-plane,50898
hepatoduodenal ligament,50898
Bristol Channel,50898
Consecutive case series,50898
selection rule,50898
Digital X-ray radiogrammetry,50898
drag queen,50898
primary mediastinal large B-cell lymphoma,50898
BRST formalism,50898
Botryococcus,50898
Radix,50898
eurosceptic,50898
Macrolophus caliginosus,50898
temporal fascia,50898
sharp objects,50898
Random error,50898
skew-symmetric form,50898
Forest Ecosystems,50898
hypoesthesia,50898
holoenzyme,50898
cognitive enhancement,50898
pedestrian zone,50898
infraorbital foramen,50898
plastic model,50898
pentylenetetrazol,50898
QPP,50898
Catholic school,50898
Holt,50898
Stirling,50898
Hamilton-Jacobi theory,50898
radiation-dominated era,50898
branched DNA assay,50898
radio maximum,50898
Puffinus,50898
Jurgen Habermas,50898
romantic nationalist,50898
den Dekker,50898
simultaneous moves,50898
shortgrass,50898
Thorndike,50898
extensive parameter,50898
Rangpur,50898
chemopreventative,50898
Cabo Frio,50898
Yuan,50898
graph matching,50898
Plant cell,50898
meiospore,50898
mixed feelings,50898
vocal sac,50898
Weimar Constitution,50898
malaya,50898
free cash flow,50898
rango,50898
indican,50898
TLR 2,50898
Fractional crystallisation,50898
SkyTeam,50898
meta-model,50898
tableaux method,50898
runaway selection,50898
Kyphosis,50898
dimethyl sulphoxide,50898
Yerkes,50898
Sex education,50898
small intestinal submucosa,50898
androcentric,50898
walking barefoot,50898
Lake Veluwe,50898
Fraunhofer,50898
Mudejar,50898
Verkade,50898
benzoylurea,50898
Hemidactylus frenatus,50898
cycloids,50898
Southern California,50898
Eifelian,50898
sound symbolism,50898
Oka,50898
cdc42,50898
common school,50898
electronic circuit,50898
decentralized planning,50898
Duszniki,50898
controlled vocabulary,50898
investment bank,50898
north-western area,50898
teleoconch,50898
Blue Mountain,50898
Rossignol,50898
The Golden Cage,50898
lithics,50898
Wigner-Ville distribution,50898
copper chloride,50898
Rez,50898
ethylene vinyl acetate,50898
baculum,50898
Dugesiidae,50898
harlequin frogs,50898
molecular entities,50898
initial object,50898
serratus anterior,50898
Luguru,50898
distal renal tubular acidosis,50898
Hofstad group,50898
perceptual fluency,50898
International Labour Organization (ILO),50898
leisure airlines,50898
natural philosopher,50898
John Ashbery,50898
career pathways,50898
fen-carr,50898
Zellweger Spectrum,50898
layout extraction,50898
proven reserves,50898
Controllability,50898
myrmecophilous,50898
unripe fruit,50898
centrifugal distortion,50898
leucophaeus,50898
Kanaka,50898
data parallel,50898
pricing power,50898
micro-sociological,50898
X-linked recessive inheritance,50898
Monogram Biosciences,50898
Museon,50898
influenza A strains,50898
horse-chestnut,50898
myocardial revascularization,50898
paleolatitude,50898
Roman Paganism,50898
macrofungi,50898
filarial nematodes,50898
Basiliximab,50898
Stijn Claessens,50898
liquidity ratio,50898
Multilingualism,50898
technical rationality,50898
Rasch scales,50898
Desulfovibrio desulfuricans,50898
no-cloning theorem,50898
Teide National Park,50898
USAID,50898
sodium tert-butoxide,50898
horizontal directional drilling,50898
Pico della Mirandola,50898
Centre North East,50898
C5L2,50898
Hahn echo,50898
CARICOM,50898
turbaries,50898
Mallorca,50898
ethnomedical,50898
part-of-speech tagging,50898
reversed phase liquid chromatography,50898
regional geography,50898
rest mass,50898
cosmic time,50898
palladium black,50898
Lucy Allais,50898
lincRNA,50898
weak equivalence,50898
Stephen Frears,50898
Habsburg monarchy,50898
Luxemburg,50898
seasonal food,50898
le capital,50898
computer aided design,50898
Tain,50898
Agariciidae,50898
simple technology,50898
National Statistics Institute,50898
deltoid ligament,50898
I-Change Model,50898
axial ratio,50898
shear-rate,50898
needlestick injuries,50898
formal employment,50898
vesicle-associated membrane protein,50898
complex airplane,50898
Bornholm disease,50898
Erasmus University Medical Center,50898
Branching fraction,50898
duodenojejunal flexure,50898
signal/noise,50898
strong peak,50898
Cueto,50898
fully connected network,50898
context switch,50898
oxygen minimum zone,50898
eBird,50898
quasielastic scattering,50898
Kekchi,50898
Earth radii,50898
FASL,50898
Control limits,50898
pulmonic stenosis,50898
tert-amyl methyl ether,50898
Tethering,50898
ocean fertilization,50898
Verwey transition,50898
commitment device,50898
pancreatectomy,50898
Primaquine,50898
National Research Council,50898
microprudential regulation,50898
Reality television,50898
X-mode,50898
Panthera leo leo,50898
Reunion Island,50898
canakinumab,50898
High Resolution Echelle Spectrometer,50898
Cyberpsychology,50898
stellar occultation,50898
amy,50898
epoprostenol sodium,50898
maximum likelihood estimate,50898
Footprinting,50898
gamma emission,50898
I-cell disease,50898
blocking temperature,50898
Curran,50898
VIs,50898
gastric band,50898
Refraction,50898
quest narrative,50898
personal protective equipment,50898
Martinus van Marum,50898
Pterophoridae,50898
Gamma-Ray Bursts,50898
Reich,50898
Adaptive Resonance Theory,50898
body politic,50898
one-way valve,50898
Diadema,50898
Web Service,50898
Meuse River,50898
free riding,50898
Cylindrospermum,50898
soft modes,50898
discriminative model,50898
Tenerife,50898
Hookean,50898
Brassica oleracea var. capitata,50898
Transition State Theory,50898
exposome,50898
Pessary,50898
Johannes Reuchlin,50898
Sputum culture,50898
learning organization,50898
Analgesics,50898
medical subject headings (MeSH),50898
Arylsulfatase B,50898
Self-portrait,50898
FEAT,50898
silodosin,50898
Finite difference time domain,50898
Greenough,50898
myrtaceous,50898
consequentialism,50898
Type I errors,50898
economic conservatism,50898
Ezra,50898
writing system,50898
Armband,50898
north-eastern areas,50898
business standard,50898
trimean,50898
aristonectine,50898
Arawakan language,50898
Hankel matrices,50898
Polynesia,50898
Marcus equation,50898
qualm,50898
electromyoneurography,50898
Mean Difference,50898
VO language,50898
Leucosolenia,50898
Agaricomycotina,50898
Lagrange multiplier test,50898
dermoid cyst,50898
mcrab,50898
TVQ,50898
flop transition,50898
EWMA chart,50898
Pluripotency,50898
Jenin,50898
de Rotterdam,50898
dioxetane,50898
hagiographic,50898
thoracic pressure,50898
planned language,50898
civic journalism,50898
future stock,50898
waria,50898
Phlebotomy,50898
sub-class,50898
Aortography,50898
Goldman-Hodgkin-Katz,50898
direct factor Xa inhibitor,50898
combined cycle,50898
Mastia,50898
Tijaniyya,50898
lotic,50898
renal vein thrombosis,50898
European flag,50898
Argentine ant,50898
salsuginea,50898
Antananarivo,50898
Flunarizine,50898
fetal disease,50898
"Queen Elizabeth Hospital, Birmingham",50898
Gracillariidae,50898
chemoreception,50898
turn-off mass,50898
levitron,50898
GMRES,50898
Transnistrian conflict,50898
possessive determiner,50898
A 66,50898
acetolactate decarboxylase,50898
Irradiance,50898
contact mechanics,50898
bioplastic,50898
PP-1,50898
barium perchlorate,50898
carbon dioxide removal,50898
thermionic emission,50898
PEX10,50898
gcc,50898
recombineering,50898
Fraser,50898
TWAS,50898
energy independence,50898
Self-pollination,50898
linear isomorphism,50898
MEDION,50898
RNA Interference,50898
ULE,50898
pancreatic abscess,50898
orbiting body,50898
chlordiazepoxide,50898
Arthroplasty,50898
Phelsuma lineata,50898
Nancy,50898
elementary reaction,50898
jaw protrusion,50898
downwelling,50898
lung allocation score,50898
Dumortier,50898
Italian Renaissance,50898
econometric software,50898
abdominal x-ray,50898
BUB3,50898
prox,50898
foetal position,50898
sleep deprived,50898
DIONYSOS,50898
WNT signals,50898
hydrocolloid,50898
HN1,50898
higher alkanes,50898
data dependencies,50898
Noortje,50898
Nehemiah,50898
greedy heuristic,50898
essentially contested concept,50898
Turbidites,50898
teleological principle,50898
trailing edge,50898
superior orbital fissure,50898
tension band wiring,50898
noctuid,50898
non-linear equation,50898
SNRI,50898
neo-Aristotelian,50898
Verstehen,50898
cines,50898
orphan diseases,50898
Wald statistic,50898
coNP,50898
legal positivism,50898
interlopers,50898
Vector boson,50898
soil microbial population,50898
tilt table test,50898
biuret,50898
Copy number variation (CNV),50898
object-based image analysis,50898
summary statistic,50898
relativistic disk,50898
pushdown automata,50898
polycistronic operon,50898
bubble models,50898
afterdepolarisations,50898
hypergroup,50898
Northern Territory,50898
HIRES,50898
MYOC,50898
lima bean,50898
SSX1,50898
ovoviviparous,50898
mechano,50898
Christian Cabala,50898
Odense,50898
normally-distributed,50898
Kruskal coordinates,50898
white supremacy,50898
dihydroartemisinin/piperaquine,50898
rectal neoplasms,50898
calcareous sponge,50898
data activism,50898
Binley,50898
evv,50898
closed basin,50898
sister taxon,50898
hydrostatic equilibrium,50898
Calumma brevicorne,50898
critical ethnography,50898
Alisma,50898
mucolipidosis III,50898
Mom,50898
monocrop,50898
Marum,50898
Bragg reflections,50898
Berber language,50898
specific angular momentum,50898
Puna,50898
probabilistic risk assessment,50898
double-J,50898
5O,50898
PKN1,50898
WNT pathway,50898
Eudicots,50898
Malacostraca,50898
free energy perturbation,50898
bronchial tubes,50898
Brexit,50898
tidally locked,50898
Hemarthrosis,50898
Systemic therapy,50898
quotient space,50898
Imaging Genetics,50898
hypertensive heart disease,50898
N-methylformamide,50898
imputed rent,50898
chiasma,50898
early warning score,50898
fax,50898
general perturbations,50898
2009 H1N1 pandemic,50898
practical reasoning,50898
Total internal reflection,50898
The fits,50898
sustainable landscape,50898
ruby,50898
thyronamines,50898
person specification,50898
hemorheology,50898
West Midlands region,50898
"2,4-dimethylpentane",50898
Ultraviolet radiation,50898
diagonally dominant,50898
electric susceptibility,50898
WDR36,50898
heparinoid,50898
Lawu,50898
Menninger Clinic,50898
Edsger Dijkstra,50898
Antoon Coolen,50898
Polychoric correlation,50898
Miyoshi myopathy,50898
fossil fish,50898
histone H1,50898
"3-carboxy-cis,cis-muconate",50898
Ijo,50898
XenA,50898
functional requirement,50898
Electrospray,50898
labiaplasty,50898
Metaphase,50898
Linepithema humile,50898
trypsin inhibitors,50898
meta model,50898
levelized cost,50898
Discoglossus,50898
Hummingbird,50898
fast-scan cyclic voltammetry,50898
Hall-effect,50898
iron fist,50898
TRPML1,50898
Uroobovella,50898
Marres,50898
Persians,50898
transvestites,50898
Fianarantsoa,50898
Collagen III,50898
Furcifer lateralis,50898
sylvatic,50898
acrophobic,50898
Classic Period,50898
linear dependency,50898
ecological threshold,50898
ATLAS.ti,50898
R558,50898
2000 US Census,50898
Norse Paganism,50898
Cautiousness,50898
Gel permeation chromatography,50898
amniotomy,50898
T/V,50898
ARC2,50898
stabilizer code,50898
Islamic studies,50898
vm,50898
enterocutaneous fistula,50898
object language,50898
biological domains,50898
Excess supply,50898
Thanetian,50898
Ovary,50898
Framingham Heart Study,50898
NEXP,50898
liquorice,50898
Brucella melitensis,50898
MTN,50898
auscultatory,50898
Exopolysaccharide,50898
Clinical Physiology,50898
upend,50898
hyperlipoproteinaemia,50898
breaking bad,50898
plantigrade,50898
Lipid II,50898
Knee pain,50898
relativistic plasma,50898
source counts,50898
Verbal memory,50898
human-wildlife conflict,50898
thrombosis prophylaxis,50898
Amish,50898
BMPR1a,50898
glossatan,50898
nephritic,50898
anterior cerebral artery,50898
Pseudodiploria,50898
shaykh,50898
avian pallium,50898
starquakes,50898
geometric morphometric,50898
multiple epiphyseal dysplasia,50898
inductively coupled plasma mass spectroscopy,50898
auto-oxidation,50898
Central Italian,50898
biological conservation,50898
Meandrina,50898
cytoplasmic male sterility,50898
3SD,50898
hierarchical control,50898
thiophosphate,50898
Bombina,50898
Hepatomegaly,50898
Maddon,50898
cAMP receptor protein,50898
FLICE,50898
amine-boranes,50898
mass-luminosity relationship,50898
Luo River,50898
Hershey,50898
Business Model Canvas,50898
fatty-acid metabolism,50898
phytosociology,50898
Mycobacterium chelonae,50898
hypobetalipoproteinemia,50898
The Iliad,50898
vls,50898
"N,O-dimethylhydroxylamine",50898
Vegetarianism,50898
Demosponge,50898
Shift Work,50898
Goal-oriented,50898
outward foreign direct investment,50898
International Test Commission,50898
urea cycle disorders,50898
Chronic stress,50898
Human-in-the-loop,50898
natural monopolies,50898
open directory project,50898
Thyrotoxicosis,50898
Chronic hepatitis C,50898
keylogger,50898
Abell 2256,50898
cosmic radiation,50898
Field Flow Fractionation,50898
John McCarthy,50898
photosensitive epilepsy,50898
Iroquois,50898
Allendoerfer,50898
inferior epigastric artery,50898
intermediate code,50898
Periodontal disease,50898
Informal learning,50898
product demonstration,50898
western Palaearctic,50898
Facial nerve,50898
16 Cyg A,50898
plant ecology,50898
perfect symmetry,50898
very-long-baseline interferometry,50898
Cumulative prospect theory,50898
meiobenthos,50898
good clinical practice (GCP),50898
Public relations,50898
inferior rectus,50898
Saprobic,50898
scorpionfly,50898
EBD,50898
progressive macular hypomelanosis,50898
cerebral thrombosis,50898
quasicrystal,50898
Cross-platform,50898
Open reading frame,50898
Trapeziometacarpal osteoarthritis,50898
carbolines,50898
townships,50898
multiprocessor scheduling,50898
Coprophagy,50898
Laver,50898
HRAs,50898
school health,50898
linear-programming,50898
startup company,50898
Trichloroethylene,50898
burning money,74628
Tajfel,50898
reflective equilibrium,50898
Rift Valley fever virus,50898
ADSL,50898
formal description techniques,50898
Macrotermitinae,50898
center channel,74635
personal taste,50898
Lipid rafts,50898
Pulmonary tuberculosis,50898
Liver resection,50898
asymptotic series,50898
conditionally convergent,50898
Glycosidase,50898
uveitic,50898
flux method,50898
Stellar dynamics,50898
Blunt trauma,50898
gamma Cassiopeiae,50898
Serine protease inhibitor,50898
Hydrocracking,50898
John Grierson,50898
Sochi Winter Olympics,50898
Plasmolysis,50898
Science communication,50898
severe combined immune deficiency,50898
ECHO,50898
thermal noise,50898
multi-criteria decision analysis,50898
Potamopyrgus jenkinsi,50898
Maternal mRNA,50898
exozodiacal dust,50898
transceive,50898
abolitionism,50898
Kabuki Syndrome,50898
Photosensitive epilepsy,50898
idiopathic interstitial pneumonia,50898
Gastric adenocarcinoma,50898
alkadienes,50898
word class,50898
scooter,74669
Aliskiren,50898
APOBEC3,50898
p16INK4A,50898
Bepridil,50898
pipelined,74674
Erythema nodosum leprosum (ENL),50898
Wilkinson Microwave Anisotropy Probe,50898
Jean Dubuffet,50898
geometric Brownian motion,50898
Media literacy,50898
cyclic cohomology,50898
Latent tuberculosis,50898
heptene,50898
computer-aided drug design,50898
Inverted papilloma,50898
Carlitz,50898
English auction,50898
bisabolene,50898
philopatric,50898
backcrosses,50898
random laser,50898
Sich,50898
Mesoporous silica,50898
patient isolation,50898
dental composite,50898
signaling game,50898
Biomedical informatics,50898
SWR,50898
Mongol empire,50898
Dutch Surinamese,50898
Interlocking directorate,50898
Global guidelines,50898
conjugate base,50898
family meal,50898
Population I,50898
Jamaat-e-Islami Hind,50898
direct democracy,50898
military ethics,50898
Mismatch repair,50898
glass fiber,50898
Critical Discourse Analysis,74710
Schizophrenia International Research Society,50898
Quantum beats,50898
Solar-like oscillations,50898
Dehydrogenation,50898
urotensin-II,50898
Molecular epidemiology,50898
VFTS 352,50898
Tight junction,50898
Sun bear,50898
Circumorbital,50898
Histamine H1 receptor,50898
Corel,50898
Soil organic matter,50898
white-coat hypertension,50898
credit rating agency,74725
civic virtue,74726
social viewing,50898
distance learning,50898
bioacoustics,50898
Topological insulators,50898
mixture theory,50898
Fine needle aspiration,50898
intraspecific diversity,50898
Walter Benjamin,50898
arms race,50898
Intrinsically disordered proteins,50898
silvery gibbon,50898
Low-density polyethylene,50898
slow food,50898
The Magdalena,50898
Dissociative Identity Disorder,50898
Direct Current,50898
continuous peripheral nerve block,50898
British Nutrition Foundation,50898
chemical engineering,50898
Rousseau,50898
Human respiratory syncytial virus,50898
grammatical category,50898
Proteasome inhibitor,50898
Malayan sun bear,50898
fertility medication,50898
BAM,50898
hired guns,74753
internal financing,74754
fast protocol,50898
New product development,50898
strategic ambiguity,50898
Tardive dyskinesia,50898
seawater aquaria,50898
light-like,50898
Akan,50898
Prochiral,50898
Induced pluripotent stem cell,50898
Tuberculosis treatment,50898
m-Health,50898
Diabetic foot,50898
Manica,50898
Neurotheology,50898
OTX1,50898
planetary fourier spectrometer,50898
Neuron-specific enolase (NSE),50898
Aminoglycosides,50898
challenging times,50898
Lallemand,50898
Spatial navigation,50898
mental set,50898
hyporheic,50898
Interstitial deletions,50898
Liver X receptor,50898
Jeremy Bentham,50898
Mycobacterium kansasii,50898
nematocide,50898
Yang-Yang,50898
ABO blood type,50898
expectancy theory,74785
Talitridae,50898
Populism,50898
Land tenure,74788
Carnitine palmitoyltransferase II,50898
Hyponatraemia,50898
Enculturation,50898
Clinical practice guideline,50898
cullin,50898
Social skills,50898
Jacob Backer,50898
microvolt,50898
ichthyological,50898
hepatotoxin,50898
Varicella zoster virus,50898
Vorinostat,50898
Gastrin,50898
null-model,50898
The urgency,50898
basic element,50898
Peter R. de Vries,50898
Grothendieck-Riemann-Roch theorem,50898
user innovation,50898
Magda,50898
Hemimegalencephaly,50898
The CoIL,50898
dot-probe paradigm,50898
Amodiaquine,50898
grey water,50898
Johnstown,50898
Gelre,50898
Mylar,50898
Solidarnosc,50898
Thyroid function tests,50898
Conway,50898
Adalia bipunctata,50898
thermal convection,50898
Five-Year Plan,50898
T-RFLP,50898
likelihood-ratio test,50898
dimensionless number,50898
Radiated Tortoise,50898
symmetric function,50898
occlusive dressing,50898
lipidation,50898
Unigene,50898
"propane-1,3-diol",50898
residual time,50898
Paganini,50898
self-energies,50898
Rhode Island,50898
Postgraduate Medicine,50898
BRMS,50898
ELSV formula,50898
carbon-oxygen bond,50898
TAVR,50898
intravenous therapy,50898
Bosniak,50898
PEGylation,50898
dual q-Krawtchouk polynomials,50898
Monoterpene,50898
MLL2,50898
KvLQT1,50898
Two boys,50898
WDR62,50898
BRT,50898
coefficient matrix,50898
plasmolysis,50898
pseudo-scalar,50898
bepridil,50898
promethazine,50898
jaboticaba,50898
kiloparsecs,50898
secret ballot,50898
video tracking,50898
Sturnus,50898
roll-up,50898
temporomandibular joints,50898
Rosmarinus,50898
Heston,50898
modello,50898
pericentre,50898
Nanotechnology,50898
Natural Killer cell,50898
arthropathies,50898
thyroid nodule,50898
Retinal detachment,50898
hereditary multiple exostoses,50898
distamycin,50898
visual area V3,50898
valence isomerization,50898
Roll Back Malaria,50898
diamorphine,50898
BFA,50898
sun bear,50898
idrabiotaparinux,50898
dependency ratio,50898
coastline length,50898
PPR,50898
CX43,50898
kernel smoothing,50898
soy milk,50898
hydroamination,50898
Puya raimondii,50898
Debaryomyces,50898
optical filter,50898
Tetraploidy,50898
Madracis auretenra,50898
pokeweed,50898
Dark Earth,50898
Molecular weight,50898
Sidoarjo,50898
EChO,50898
algebraic torus,50898
KHQ,50898
ATN1,50898
ideal class,50898
Veronica,50898
HFP,50898
Dinitrobenzene,50898
222Rn,50898
case preservation,50898
Bravais lattice,50898
TESE,50898
Dspace,50898
pgp,50898
conformal structure,50898
Myocyte,50898
nephrosclerosis,50898
rheumatoid nodules,50898
7094,50898
Exercise intolerance,50898
Wenchuan earthquake,50898
sialorrhea,50898
tensor field,50898
MWW,50898
chemosis,50898
Interstellar Medium,50898
paraphyly,50898
blood type,50898
Newtonian limit,50898
ARIADNE,50898
spatial justice,50898
vortex ring,50898
peace movement,50898
Paresis,50898
superficial basal cell carcinoma,50898
cosmic censorship,50898
inter-alpha-trypsin inhibitor,50898
DNA typing,50898
tornado,50898
International Continence Society,50898
elementary matrix,50898
superficial transverse perineal muscle,50898
Digital data,50898
Sochi,50898
lebrikizumab,50898
CUL4A,50898
exemestane,50898
T4 bacteriophage,50898
CO1,50898
Anthony Giddens,50898
GRPS,50898
RICE,50898
hypocalcaemia,50898
RNF11,50898
anaphors,50898
TAF4b,50898
human pelvis,50898
Rosiglitazone,50898
emanation,50898
dinitrotoluene,50898
geometric analysis,50898
Simias,50898
Galois module,50898
fumigation,50898
RhoQ,50898
chromene,50898
Hydrobia,50898
Myrciaria,50898
Retention rate,50898
Deep Chlorophyll Maximum,50898
Maculopathy,50898
mesoblastic nephroma,50898
Risk analysis,50898
occupational hearing loss,50898
neuron-specific enolase (NSE),50898
rotational symmetries,50898
rpb2,50898
Variant Call Format,50898
occlusive dressings,50898
"Nivelles, Belgium",50898
Ophthalmoscope,50898
Rousay,50898
Tracheobronchial injury,50898
gamma globulins,50898
2a-c,50898
Vlie,50898
Temporary work,50898
Ceph,50898
screw axis,50898
distance sampling,50898
mulch,50898
megafaunal,50898
Convergent evolution,50898
HbE,50898
post-critical,50898
resid,50898
Suppression subtractive hybridization,50898
Population III star,50898
Exoplanet,50898
Kraft,50898
American Mathematical Society,50898
backbonding,50898
capillary waves,50898
Dusseldorf,50898
gonadoblastoma,50898
coagulation necrosis,50898
Montfort Hospital,50898
Golgi cells,50898
Reticulum II,50898
FDD,50898
Gallery forest,50898
equilibrium stage,50898
luminex,50898
levodopa-induced dyskinesias,50898
deontic modality,50898
AQUARIUS,50898
vowel reduction,50898
mast fruiting,50898
Papaver,50898
trans-2-butene,50898
PS3,50898
interleukin-1 receptor-associated kinase,50898
ICAR,50898
gene chip analysis,50898
abolitionists,50898
Qingdao,50898
Sensory nerve,50898
4 Vesta,50898
Nightmare disorder,50898
Kuiper Belt,50898
peculiar velocity,50898
saccharin,50898
Fornax cluster,50898
softwood,50898
Endocarp,50898
VCF,50898
deixis,50898
oxyluciferin,50898
Attention deficit hyperactivity disorder,50898
Tortoise,50898
Deferral,50898
optineurin,50898
tralokinumab,50898
sodium cyanide,50898
non-interventionist,50898
2-Naphthol,50898
lithosols,50898
RASE,50898
Persicaria hydropiper,50898
M. kansasii,50898
ELsevier,50898
VERITAS,50898
Elephas,50898
alcon,50898
equifinality,50898
Rosamunde,50898
FLR,50898
2014 Olympics,50898
T. violaceum,50898
microfungi,50898
polytomy,50898
foot-and-mouth disease virus,50898
Lentiviral,50898
legal drug,50898
Acremonium,50898
change deafness,50898
UMTS,50898
pethidine,50898
Chartist,50898
testate amoebae,50898
Azorella selago,50898
group W,50898
acute myocarditis,50898
IMD,50898
FMRIB Software Library,50898
Bellman,50898
newspaper types,50898
Handshape,50898
n-jet,50898
anti-holomorphic,50898
Reflectivity,50898
Tarsius,50898
trinitrotoluene,50898
speciated,50898
pruritis,50898
atmospheric instability,50898
chronozone,50898
ACADs,50898
a-site,50898
ascidians,50898
RGS6,50898
soil seed bank,50898
PEx14,50898
household debt,50898
soil crust,50898
TLR 4,50898
Filter paper,50898
GLR,50898
8.2 ka event,50898
Kilosa,50898
Euthyroid,50898
PLA2,50898
CD11b+,50898
SQA,50898
Lck,50898
VSCC,50898
biorenewable,50898
ray optics,50898
briefs,50898
Chrysoperla carnea,50898
Data reduction,50898
The OC,50898
GFRA1,50898
pulmonary compliance,50898
S. flexneri,50898
IIc,50898
Espeletia,50898
leading strand,50898
thermophilous,50898
polar projections,50898
convergent plate boundary,50898
coolant,50898
Pneumocystis jiroveci,50898
HNRPUL1,50898
false dilemma,50898
Bmal1,50898
moxalactam,50898
Sagittarius dwarf spheroidal galaxy,50898
Penny,50898
Baryon,50898
comoving,50898
sodium tetraborate,50898
deamidated gliadin,50898
depolymerisation,50898
local cluster,50898
LECT2,50898
heat equation,50898
X-inactivation,50898
radioisotopes,50898
synthesizer,50898
Serapias,50898
spectral emissions,50898
Schmidt number,50898
martial law,50898
contemporary political theory,50898
grade 1B,50898
"8-bromoguanosine 3',5'-cyclic monophosphate",50898
asphaltene,50898
diabetes mellitus type II,50898
coccosteid,50898
Eva Ment,50898
sodium chlorate,50898
9000 series,50898
anaphora,50898
He-Ne laser,50898
Chemical Engineering Science,50898
CD37,50898
FCA group,50898
Euseius ovalis,50898
NEO1,50898
Memorial Sloan-Kettering Cancer Center,50898
Leopard Tortoise,50898
Casper,50898
Osteolepis,50898
Molucca Sea,50898
FTMS,50898
Trichina,50898
Moquegua,50898
NKH,50898
American Dental Association,50898
Mrk 501,50898
Plancherel formula,50898
oliguria,50898
empathogenic,50898
GSTM4,50898
ipratropium bromide,50898
bestatin,50898
Coma Berenices,50898
Tinsley,50898
CITES Appendix I,50898
interstitial cystitis/painful bladder syndrome,50898
Time management,50898
gonocyte,50898
dupilumab,50898
glufosinate,50898
Mendelian segregation,50898
isotopic abundance,50898
vasectomy,50898
Saccharin,50898
G cells,50898
LAX,50898
Greenberg dysplasia,50898
Marion Island,50898
cosmological horizon,50898
A625,50898
primary carnitine deficiency,50898
Standardized rate,50898
Scopulariopsis,50898
HmgA,50898
Platelet count,50898
mendelian inheritance,50898
Mitragyna inermis,50898
Kenkiidae,50898
CPNB,50898
SQSTM1,50898
fluvio-glacial,50898
Macrotermes,50898
arthrodire,50898
DEAE-dextran,50898
endometrioma,50898
Irx6,50898
Monobenzone,50898
COUP-TF,50898
escalator,50898
amphidromous,50898
differentially rotating,50898
PERSEUS,50898
dwarf spheroidals,50898
aMC,50898
17-hydroxyprogesterone caproate,50898
CUL4B,50898
Epitope binning,50898
Skp1,50898
ICMP,50898
MOPS,50898
Sylvian fissure,50898
The gravitational waves,50898
class number formula,50898
Core i7,50898
chikungunya fever,50898
Anchitheriomys,50898
Josta,50898
adaptive sampling,50898
hydrologic units,50898
C. suis,50898
Canaanite,50898
NGC 1399,50898
silver chloride,50898
B. borealis,50898
pgi,50898
Sarcocephalus,50898
connexon,50898
Sindbis virus,50898
HEK cell,50898
Coulomb explosion,50898
dissecting aneurysm,50898
MKK4,50898
N-Ethylmaleimide,50898
Biological Species Concept,50898
Ajmaline,50898
Charlie-Gibbs Fracture Zone,50898
African-American studies,50898
S. sonnei,50898
sulfa,50898
Periodontal ligament,50898
SMN1,50898
Ernst Hirsch Ballin,50898
etiopathogenetic,50898
type Ia supernova,50898
serositis,50898
GABRA1,50898
Los Alamos,50898
thioflavin T,50898
landmark group,50898
Johns Hopkins University Press,50898
oncocytoma,50898
Mpraeso,50898
distributaries,50898
macrothrombocytopenia,50898
spike sorting,50898
AAA+,50898
polyaromatic,50898
cAMP release,50898
membranous glomerulonephritis,50898
T.D.,50898
Western China,50898
Dendrocoelidae,50898
Endocardium,50898
MKT,50898
pelvic bone,50898
Kinyarwanda,50898
Sherwood number,50898
local optima,50898
text retrieval,50898
N57,50898
BMPT,50898
soluble guanylyl cyclase,50898
Pethidine,50898
ERDA,50898
Cassia sieberiana,50898
Amazon River,50898
Language proficiency,50898
diacylglycerols,50898
egg replacement,50898
habitable zone,50898
aerobic treatment,50898
BLS,50898
chromospheric,50898
IC/PBS,50898
eos,50898
planation surface,50898
crawl space,50898
Methyl iodide,50898
QUANTA,50898
GENMAPP,50898
taxonomic inflation,50898
Cladosporium,50898
Old age,50898
Tegaderm,50898
Temperature-programmed reduction,50898
Hyperhidrosis,50898
Targeted temperature management,50898
PTP1,50898
heterotaxy,50898
cinchona alkaloids,50898
Aeropyrum pernix,50898
transverse process,50898
Cyp1b1,50898
total 911,50898
rifapentine,50898
omalizumab,50898
portal venous system,50898
Neopanorpa,50898
Ex-Yugoslavia,50898
birdshot chorioretinopathy,50898
dwarves,50898
Lobule,50898
standard reference method,50898
heme peroxidase,50898
antianxiety,50898
Ugt1a6,50898
Eastern Region,50898
DBS group,50898
citrus pulp,50898
OMNI,50898
Xiphophorus helleri,50898
obligate aerobe,50898
quartz crystal,50898
PKP4,50898
Viburnum,50898
Durnin,50898
northern krill,50898
"2,4-dinitrotoluene",50898
hyposecretion,50898
central nervous system disease,50898
papillary dermis,50898
LS Group,50898
levobupivacaine,50898
WDPT,50898
coral polyp,50898
peculiar velocities,50898
trigonocephaly,50898
Upper endoscopy,50898
Eyelid,50898
Ube3a,50898
Nephrotoxicity,50898
nodose ganglion,50898
DDX3X,50898
sidereal,50898
binomially distributed,50898
unknown painting,50898
Crab nebula,50898
dihydroquinidine,50898
The K2,50898
Sporothrix schenckii,50898
Cochlospermum,50898
Dandy-Walker malformation,50898
acroporid,50898
2-pentene,50898
pull-off,50898
col3a1,50898
CsA group,50898
CD93,50898
Oral cavity,50898
silver staining method,50898
Panorpa,50898
Lung function tests,50898
Orsotriaena,50898
Fv/Fm,50898
BET inhibitor,50898
iron(III) hydroxide,50898
Pharmacotherapy,50898
notifiable disease,50898
Thalassemia,50898
Microhylinae,50898
Yule,50898
episomes,50898
Cantabria,50898
MBCs,50898
klystron,50898
Anogeissus leiocarpa,50898
diiodomethane,50898
Citrullination,50898
Conway group,50898
KOCT,50898
Ltn,50898
Meganyctiphanes norvegica,50898
open laser,50898
Developmental Dynamics,50898
sural,50898
joint infection,50898
dihydroquinine,50898
naftopidil,50898
Dipsacales,50898
Tajima,50898
Gq,50898
RC6,50898
TMEM43,50898
Medicinal plants,50898
therapeutic gap,50898
Cordless phone,50898
Functional abdominal pain,50898
TBR1,50898
mGlu5,50898
sound pressure,50898
Telio,50898
Ventricular septal defect,50898
medus,50898
skin conductance response,50898
B-cell leukemia,50898
Grande-Terre,50898
AT2,50898
Guiera senegalensis,50898
RFX5,50898
haemothorax,50898
Thinner,50898
Nectin,50898
Ficus,50898
system 3,50898
AEI,50898
indane,50898
personal protection,50898
gas giant,50898
prefrontal gyrus,50898
ATXN7,50898
mutualistic symbiosis,50898
Sabel,50898
Amusia,50898
knapsack problem,50898
Ewald,50898
Process management,50898
remanent magnetization,50898
tarsal bones,50898
non-declarative memory,50898
oDesk,50898
hyperexponential distribution,50898
tetrachloroethylene,50898
Carnivora,50898
Cowley,50898
telic,50898
ESSR,50898
logician,50898
cyclopentadienone,50898
wireless LAN,50898
interblock,50898
Sofala,50898
Met-enkephalin,50898
Ophiostomatales,50898
cupula,50898
hypergammaglobulinemia,50898
Monte Carlo simulations,50898
presidential debates,50898
folate deficiency anaemia,50898
Group 13 element,50898
Resource Description Framework,50898
Naples Yellow,50898
King Shaka International Airport,50898
neoprene,50898
SASI,50898
proportional reasoning,50898
preference relation,50898
Family Affair,50898
probability logic,50898
Patched,50898
MBH,50898
Fortune Global 500,50898
ego-defensive,50898
Venus Express,50898
Ascension,50898
Single European Act,50898
Central venous pressure,50898
10 000 metres,50898
chronic poverty,50898
Atacama Large Millimeter Array,50898
Social exchange theory,50898
non-Newtonian fluid,50898
dysentery,50898
exotoxin A,50898
pCRL,50898
Discovery learning,50898
maternal request,50898
external angle,50898
Hidden Figures,50898
Parliament Act 1911,50898
Ballaigues,50898
esophageal voice,50898
botanist,50898
offset printing,50898
terminal velocities,50898
free-rider problem,50898
phyllosilicate,50898
metallography,50898
West Texas Intermediate,50898
Radiopharmaceutical,50898
quintic,50898
period 10,50898
submarine fan,50898
felicity,50898
reference electrode,50898
diogenite,50898
traceless,50898
Agrostis magellanica,50898
Delsarte,50898
Sulodexide,50898
making time,50898
virgin territory,50898
John Turner,50898
Sutan Sjahrir,50898
ancient Greek,50898
mental process,50898
European Higher Education Area,50898
Dutch lake,50898
gestational trophoblastic disease,50898
p-brane,50898
first-price sealed-bid auction,50898
quasicrystalline,50898
brood parasite,50898
Bursting Pulsar,50898
Domain theory,50898
tropical rainforest conservation,50898
Aggregate demand,50898
Artemisinin-based combination therapy,50898
theoretical ecology,50898
trace-class operator,50898
market capitalization,50898
molar mass distribution,50898
Demak,50898
The dentist,50898
MRE11,50898
methyl nitrite,50898
reflex epilepsy,50898
ReBr,50898
Magdalena River Turtle,50898
limbic cortex,50898
Challenge 2000,50898
Zoological Museum Amsterdam,50898
XMark,50898
microfabricated,50898
Philip Pettit,50898
electronic commerce,50898
oder,50898
community treatment,50898
marsh gentian,50898
Human capital,50898
marker-assisted selection,50898
Aaptos,50898
short sale,50898
fail-safe,50898
inferior alveolar nerve block,50898
Moran Eye Center,50898
aortitis,50898
neuraxis,50898
Claes Oldenburg,50898
phytophagy,50898
feudalism,50898
Houhanshu,50898
JIH,50898
predictive methods,50898
apomorphies,50898
antiquarian,74788
Kaiser,50898
Trojan War,50898
Maruca vitrata,50898
attenuated vaccine,50898
juvenile justice institutions,50898
Poisson point process,50898
Gomphichis,50898
rationally independent,50898
simple features,50898
Occlusive,50898
allylamines,50898
reproductive rights,50898
narrative mode,50898
West Ice,50898
abnormal behaviours,50898
interior-point method,50898
Multiple Personality Disorder,50898
xenotropic murine leukemia virus-related virus,50898
Childress,50898
Pico island,50898
excise tax,50898
submodular function,50898
Cd37,50898
oxbow lake,50898
metered-dose inhaler,50898
Mljet,50898
chronic respiratory disease,50898
bungee jump,50898
NS-398,50898
allopatry,50898
Entada,50898
JBW,50898
enterotoxins,50898
HHV-1,50898
BRD2,50898
Systolic pressure,50898
Hantaviruses,50898
extramedullary hematopoiesis,50898
northern bank,50898
Neoptera,50898
Rnf11,50898
fevipiprant,50898
Quinidine,50898
OPEC,50898
lumbago,50898
LLG,50898
eluvial horizons,50898
Lrig1,50898
Interquartile range,50898
acetate kinase,50898
deep valley,50898
single particle analysis,50898
Danaparoid,50898
Supergiant Fast X-ray Transients,50898
licorice,50898
Tcell,50898
sultopride,50898
BRD3,50898
helical flow,50898
Heteroptera,50898
The rapid development,50898
COUP-TFII,50898
Thromboembolism,50898
Cry1,50898
Agonism,50898
JX,50898
SLC10A1,50898
Otophryne,50898
Phenylalanine,50898
Neurotrophin,50898
psychasthenia,50898
"fructose-1,6-bisphosphatase",50898
brood parasitism,50898
Iriartea,50898
flowerhead,50898
Translational Psychiatry,50898
Macaranga,50898
STOP codon,50898
RMGI,50898
MRu,50898
CBC,50898
MD2,50898
arrestin,50898
Cd11b,50898
BRD4,50898
heroin maintenance,50898
illuvial,50898
Pentatomidae,50898
Burseraceae,50898
iodoethane,50898
compensatory sweating,50898
isoguvacine,50898
non-shivering thermogenesis,50898
Eusideroxylon zwageri,50898
MC4 receptor,50898
loop 9,50898
B-RAF,50898
two-hit hypothesis,50898
dark gravity,50898
functional gastrointestinal disorder,50898
EPSC,50898
posterior mode,50898
Betulaceae,50898
UGT1A10,50898
Piperaceae,50898
320d,50898
Pachira aquatica,50898
The cool surface,50898
small basic,50898
7SK,50898
Virola,50898
Six1,50898
Restriction fragment length polymorphism,50898
Malpighiaceae,50898
DNMT3A,50898
New Delhi metallo-beta-lactamase,50898
Dithiothreitol,50898
C-repeat binding factor,50898
Herbal remedies,50898
inferior rectus muscle,50898
Flt1,50898
Terminal deoxynucleotidyl transferase,50898
PAV.,50898
UGT2B4,50898
downy,50898
Fagaceae,50898
positive allosteric modulator,50898
Whitefly,50898
PSMD6,50898
RNA silencing,50898
south Pennines,50898
Herodotus,50898
Calluella,50898
reticular nucleus,50898
H2Fe(CO)4,50898
Millennium development goal,50898
fixed bed reactors,50898
McDonald-Kreitman test,50898
PMMS,50898
yaws,50898
6-monoacetylmorphine,50898
elliptic curve,50898
dibromochloromethane,50898
dead space ventilation,50898
mGlu5 receptor,50898
Lithological,50898
protein phosphatase 2A,50898
Entognatha,50898
hepatectomies,50898
ornithine transcarbamylase deficiency,50898
BMP7,50898
night hours,50898
substrate-level phosphorylation,50898
cycloguanil,50898
Z1,50898
RuBisCO,50898
increased white blood cell count,50898
Ogt,50898
Planck Collaboration,50898
Salicaceae,50898
Spodosol,50898
sulphamethoxazole,50898
differential attack,50898
radial route,50898
scorpionflies,50898
botox injection,50898
domatium,50898
PCPT,50898
biogeographic regions,50898
bafilomycin A1,50898
Fluvastatin,50898
AA amyloidosis,50898
DNA array,50898
Metastatic melanoma,50898
sub-Andean zone,50898
bacterial capsules,50898
isoprenyl,50898
Jamesonia,50898
Sundaic,50898
sodium triphosphate,50898
phytochemical,50898
megaloblastic anemia,50898
Connexin 43,50898
Trehalose,50898
Cancer Cell,50898
Survanta,50898
Yakut,50898
PON2,50898
GT6,50898
ASXL1,50898
soil genesis,50898
carboxysome,50898
HS1,50898
Huperzia,50898
animal urine,50898
lanthanide contraction,50898
Kir6.2,50898
polymenorrhea,50898
airglow,50898
Wiesbaden,50898
C. fusiforme,50898
Ifnar1,50898
Type I interferon,50898
FN1,50898
delta distribution,50898
molecular systematics,50898
optical lithography,50898
non-parametric regression,50898
Collusion,50898
hemophilia B,50898
azo dye,50898
vaginal intercourse,50898
Sodium phosphate,50898
Schijndel,50898
NTIME,50898
Strix,50898
computed tomography (CT) angiography,50898
Chaetognaths,50898
countercurrent flow,50898
Fagin,50898
laughing gas,50898
human vertebral column,50898
algebraic equivalence,50898
spark erosion,50898
top brass,50898
White House,50898
Communist bloc,50898
true crime,50898
Zakynthos,50898
High Court,50898
histidase,50898
pyrolized,50898
"8-bromoadenosine 3',5'-cyclic monophosphate",50898
basidiomycete,50898
"N,N-diisopropylethylamine",50898
"1,3-cyclohexanedione",50898
common choice,50898
challenge response,50898
Yponomeuta padellus,50898
SR 21,50898
cranioplasty,50898
stage migration,50898
allylic substitution,50898
Spinomantis,50898
L-isoleucine,50898
Rhine-Ruhr,50898
double-strand DNA breaks,50898
rhabdomere,50898
Hepatitis-C,50898
eddy-diffusion,50898
Bentham,50898
orphan drugs,50898
light reading,74754
St Helena,50898
Haigh,50898
Greek lyric poetry,50898
Kaushal,50898
comonotonicity,50898
HTV-1,50898
Indiana University,50898
Quasiperiodic,50898
SpongeBob SquarePants,50898
discrete category,50898
ideal class group,50898
Drechtsteden,50898
biliopancreatic diversion,50898
Podocnemis,50898
Hopf algebra,50898
Formal methods,50898
feuilleton,50898
brand preference,50898
frugivory,50898
methylethylketone,50898
Early goal directed therapy,50898
drug dependence,50898
global guidelines,50898
incertae sedis,50898
nightmare disorder,50898
cyclopropenyl,50898
coll,50898
mmen,50898
pseudoautosomal region,50898
Norplant,50898
Drummond,50898
nilpotent group,50898
LDP,50898
feature model,50898
The KOALA,50898
Feynman-Kac,50898
Stratum opticum,50898
Boechera holboellii,50898
young life,50898
KADS,50898
cystoprostatectomy,50898
Diagnostic procedures,50898
atypical pneumonia,50898
job enrichment,50898
long QT Syndrome,50898
WTI,50898
Horizontal Merger Guidelines,50898
La Fontaine,50898
ideal theory,50898
MIMD,50898
business marketing,50898
Italian Sign Language,50898
Greenland Sea,50898
Tete,50898
high-performance teams,50898
bipolar cell,50898
Greenhill,50898
Intestinal metaplasia,50898
Vicq,50898
simple choices,50898
Ibn Khaldun,50898
radiation treatment planning,50898
lagom,50898
"Anand, Gujarat",50898
product recall,50898
NASDAQ composite,50898
ligninase,50898
occupy central,50898
primordial cell,50898
temporary agency work,50898
Acrocephalus australis,50898
Pressure swing adsorption,50898
Orle,50898
kinetoplast,50898
HMXB,50898
EBRO,50898
wildlife trade,50898
elementarily equivalent,50898
Double blind,50898
stick-slip motion,50898
clonal anergy,50898
phonemic awareness,50898
associator,50898
generic point,50898
Arcminute MicroKelvin Imager,50898
Moya,50898
Rodent studies,50898
Samuel Coleridge,50898
South Asian tsunami,50898
Wesley,50898
Z4,50898
ouzo,50898
Barstow Formation,50898
BK polyomavirus,50898
photochromism,50898
ROSETTA,50898
Second Life,50898
digital piracy,50898
Kayser-Fleischer rings,50898
xj,50898
Cuyabeno,50898
BMP5,50898
lignocellulose,50898
geranylgeranyltransferase I,50898
streptococcus pneumonia,50898
Fra2,50898
Poplar,50898
Rudolph,50898
Sanmen,50898
Ila,50898
stable storage,50898
afferent limb,50898
LRIG1,50898
COPB1,50898
Biberach,50898
eotaxin-1,50898
Budesonide/formoterol,50898
ERAP2,50898
Glomerulosclerosis,50898
Streptomycin,50898
cortactin,50898
eotaxin-2,50898
ets-1,50898
Glibenclamide,50898
veratraldehyde,50898
Benzocaine,50898
Mbo,50898
C. herbarum,50898
aciclovir,50898
foetal impairment,50898
Eday,50898
Wellcome,50898
Stratifin,50898
ADAMTS5,50898
MPEP,50898
Burgwedel,50898
halocarbon,50898
Eday Group,50898
Mehler reaction,50898
valacyclovir,50898
Chlorine,50898
SIB-1757,50898
E67,50898
den Oever,50898
H295R,50898
Xiaoshan,50898
CTSK,50898
Post-transcriptional regulation,50898
polygenic hypercholesterolemia,50898
selection advantage,50898
Superoxide dismutase,50898
syphilitic,50898
Thyroidectomy,50898
4 play,50898
flagstone,50898
chlorophenylbiguanide,50898
carboxypeptidase E,50898
intelectin,50898
pointing device,50898
lava dam,50898
Hazel,50898
Aorta,50898
Perit,50898
occupational asthma,50898
Okazaki,50898
Optical Module,50898
spring 1990,50898
extended random,50898
Apartheid,50898
formal language theory,50898
Biogeography,50898
James Clerk Maxwell,50898
superconformal field theory,50898
CDT,50898
Aesop,50898
word-stem completion test,50898
pre-existence,50898
accelerated failure time model,50898
Bargmann,50898
pedotransfer function,50898
Ladner,50898
The cerebellum,50898
civil service,50898
Chest x-ray,50898
monofluoride,50898
Mexican American,50898
Scholes,50898
accelerated expansion,50898
ritardando,50898
Laughlin,50898
complete partial order,50898
picornaviruses,50898
Yixian Formation,50898
Y2H,50898
superheterodyne,50898
Climatius,50898
south Peru,50898
Smilde,50898
Berlin patient,50898
Lissajous curve,50898
Most Wanted,50898
overlap coefficient,50898
Matrix population models,50898
bismuth hydroxide,50898
Vascular Endothelial Growth Factor (VEGF),50898
west Greece,50898
Dr-1,50898
Agelasida,50898
nudix,50898
Anti-de Sitter space,50898
CSN,50898
corifollitropin alfa,50898
Iron deficiency anaemia,50898
rer,50898
Eye muscle,50898
Rhizopus oryzae,50898
Public Relations Review,50898
microporous material,50898
hybrid operating room,50898
fundamental representation,50898
standard assessment procedure,50898
Stochastic dynamic programming,50898
superconformal algebra,50898
47 Tucanae,50898
pyloric stenosis,50898
universal enveloping algebra,50898
GRB 051221A,50898
British National Formulary,50898
"Salt Lake City, Utah, USA",50898
kxk,50898
colony collapse disorder,50898
ascomycin,50898
Wii Balance Board,50898
Bancroft,50898
Natural History Museum,50898
root lattice,50898
oxoacid,50898
asset freezing,50898
West Yorkshire,50898
leguminous,50898
Personification,50898
heat kernel,50898
noncompetitive antagonist,50898
intellectual capital,50898
function word,50898
Kasner,50898
Karabakh,50898
vestibulo-ocular,50898
Kiswahili,50898
Stanley Hoffmann,50898
anti-vaccination movement,50898
Negative affectivity,50898
General Packet Radio Service,50898
Lac repressor,50898
interpretative phenomenological analysis,50898
First Order Logic,50898
subantarctic,50898
active noise reduction,50898
Boston Marathon,50898
gasoil,50898
bronchodilation,50898
S-band,50898
duodenal switch,50898
equidistribution,50898
Loma Linda,50898
proper forcing,50898
Morbidity rate,50898
Signal Detection Theory,50898
prior informed consent,50898
cocommutative,50898
Hyaloperonospora,50898
Aggregator,50898
science gateway,50898
coagulation factor IX,50898
Ra'anana,50898
boundary current,50898
Cape lion,50898
nonketotic hyperglycinemia,50898
pronatalist,50898
Megiddo,50898
cystein,50898
ZAHARA,50898
Bernoulli distribution,50898
Killing spinor,50898
Urmston,50898
"Yermo, California",50898
Private Pilot Licence,50898
Pulicat,50898
Mongol conquests,50898
TRBP,50898
frost weathering,50898
political theorist,50898
contusion,50898
microcephalic,50898
Wiggers diagram,50898
Merulius,50898
identical particles,50898
H2L2,50898
Jupille,50898
antifeedant,50898
female sexual dysfunction,50898
hybrid code,50898
command-line,50898
burning flame,50898
same-sex relationship,50898
pescetarianism,50898
computer animation,50898
Oldenburg,50898
Sappho,50898
ground loops,50898
alpha-N-acetylgalactosaminidase,50898
Animosity,50898
High Level Architecture,50898
mycology,50898
downcutting,50898
Ascomycota,50898
tenofovir alafenamide,50898
Surfactant therapy,50898
water lilies,50898
Gaia mission,50898
Turpentine,50898
anteriad,50898
Pucciniomycotina,50898
Lundell,50898
Bohai Gulf,50898
G-508,50898
mechanoreceptor,50898
elafin,50898
A-640,50898
dysgerminoma,50898
East China Sea,50898
MODS,50898
Nymphaeaceae,50898
focal segmental glomerular sclerosis,50898
EGL,50898
Gab1,50898
Cathepsin K,50898
Thurso,50898
Molecular Ecology,50898
non-simultaneity,50898
radio window,50898
Id3,50898
megakaryoblast,50898
optical aberrations,50898
content word,50898
VHF,50898
UniGene,50898
Spaarne,50898
nonspecific interstitial pneumonia,50898
cobalt 60,50898
coccinellid,50898
MAX phase,50898
IDCT,50898
Baviaanskloof,50898
HLA-A29,50898
IOIs,50898
Heaven,50898
SAT solver,50898
undue influence,50898
post-humanism,50898
nonsteroidal anti-inflammatory drugs (NSAIDS),50898
yan,50898
DLW,50898
Irx2,50898
Chechnya,50898
Majoron,50898
Stakhanov,50898
class switch recombination,50898
constitutive equations,50898
organicist,50898
East-Central Europe,50898
null energy condition,50898
Stackelberg game,50898
Necrotizing fasciitis,50898
IL10RB,50898
rape myth,50898
data modeling,50898
Josef Stefan,50898
Feminism,50898
pleopod,50898
tetramethoxysilane,50898
systemic juvenile idiopathic arthritis,50898
Katete,50898
gametangial,50898
Ibycus,50898
Capelle,50898
OV13,50898
Classical test theory,50898
video lectures,50898
Chengdu,50898
HBZ,50898
cordless phone,50898
endocarp,50898
Cyamopsis tetragonoloba,50898
AGILE,50898
coastal erosion,50898
physiognomically,50898
Nanoparticle,50898
Generalized Riemann Hypothesis,50898
SLAN,50898
large Magellanic Cloud,50898
Malayan sun bears,50898
Chios,50898
fractal geometry,50898
self-pollinating,50898
Sjahrir,50898
Lapworth,50898
Intel iPSC/860,50898
quantum dynamical semigroup,50898
papulopustular rosacea,50898
sigmoid curve,50898
obovatus,50898
operator system,50898
ombudsperson,50898
fission-fusion,50898
acanthodians,50898
NURBS,50898
credit spread,50898
media education,50898
MtDNA,50898
third-sector,50898
genetic subgroup,50898
trituration,50898
transition band,50898
Hip joint,50898
Neisseriaceae,50898
US bank,50898
remains alive,50898
over-commercialized,50898
ellipsoid method,50898
giant resonance,50898
Concini,50898
Henry Simons,50898
conserved current,50898
intermediate logics,50898
nonradiative recombination,50898
Pulmonary valve,50898
Rotational energy,50898
coprophagy,50898
anti-gravity,50898
Branchinecta,50898
varus deformity,50898
financial derivatives,50898
Dutch railway network,50898
phase velocities,50898
mucus plugs,50898
Cost-minimization analysis,50898
UV-photon,50898
P2RY12,50898
Turkish Sign Language,50898
hot air balloon,50898
James Clerk Maxwell telescope,50898
FHA,50898
Sensory gating,50898
dynamo,50898
ATXN1,50898
Binding energy,50898
phantom head,50898
Skhirat,50898
environmental flow,50898
Huna,50898
0280,50898
atmospheric escape,50898
sclerotic rings,50898
Mn 19,50898
Psychological assessment,50898
bear market,50898
etale,50898
WiFi,50898
1-Naphthol,50898
Twi,50898
reticulated python,50898
Solihull,50898
transurethral needle ablation,50898
Vivir,50898
Agouti Related Peptide,50898
The Challenge,50898
Procesi,50898
spirillum,50898
defeasible logic,50898
coronograph,50898
transoral robotic surgery,50898
landscape modifications,50898
fresco,50898
Alphavirus,50898
hemeprotein,50898
odometry,50898
eloquent cortex,50898
hyperalgesic,50898
critical dynamics,50898
Bologna Process,50898
B-Vitamins,50898
insula cortex,50898
Event Related Potential (ERP),50898
Tome,50898
Diseases database,50898
Claudication,50898
function field,50898
VDJ recombination,50898
autoclavable,50898
Seyfert 2,50898
radio halos,50898
maternal mRNA,50898
Jewish history,50898
Apus,50898
intrinsically disordered proteins,50898
carboline,50898
carbene complex,50898
green algal,50898
OTI,50898
dense set,50898
Lesbos,50898
chemical sensor,50898
116 000,50898
Doha,50898
swainsonine,50898
homo sapiens,50898
phthalic anhydride,50898
Gibrat,50898
symplectic form,50898
Theognis,50898
portable document format,50898
vaccination policy,50898
ISDB,50898
Termitomyces,50898
Galax,50898
Folin-Ciocalteu,50898
Greibach Normal Form,50898
Nuclear magnetic resonance imaging,50898
Italian people,50898
Trauma II,50898
lamin B receptor,50898
Goddard Space Flight Center,50898
microwork,50898
Early Medieval,50898
The chances,50898
laser Doppler velocimetry,50898
Ashkenazi-Jewish,50898
reactive inhibition,50898
Gyroptychius,50898
Wuhan University,50898
AGLA,50898
Vif,50898
neurotheology,50898
Twitch,50898
Kilosa district,50898
Microsimulation,50898
Cobalt,50898
Ashkenazi Jew,50898
market capitalisation,50898
Tudor domain,50898
Hell,50898
amino alcohol,50898
NGTS,50898
CHEOPS,50898
hemobilia,50898
Paraty,50898
TFIID,50898
Esox,50898
vertex function,50898
privileged ligand,50898
thelytokous parthenogenesis,50898
counting problem,50898
transcatheter aortic valve replacement,50898
saturation intensity,50898
hypsochromic shift,50898
concentration camp,50898
Mount Spurr,50898
computer assisted tomography,50898
D-penicillamine,50898
Kaleckian,50898
colobomas,50898
meritocratic,50898
ecological design,50898
rag-1,50898
Orthopaedic surgery,50898
scapular fracture,50898
heterosexuality,50898
AACC,50898
Basal Cell Carcinoma,50898
KS-band,50898
volumetric display,50898
Burnett,50898
HMG-box,50898
Americium,50898
large-scale data,50898
orbito-frontal cortex,50898
cSVD,50898
Josephine Butler,50898
Rawalpindi,50898
Vatican,50898
digital hardware,50898
LigIV,50898
DIOP,50898
graphology,50898
Xiaogan,50898
statistical shape analysis,50898
Cambaridae,50898
CSCE,50898
Sodium thiosulfate,50898
intercostal muscle,50898
RNA-silencing,50898
Shepley,50898
integrated coastal management,50898
endonyms,50898
apus,50898
compatible solutes,50898
stereo matching,50898
suspension feeder,50898
TERC,50898
J33,50898
interstitial pneumonia,50898
IOWA Gambling task,50898
Manombo,50898
Lincoln Near-Earth Asteroid Research,50898
Pointwise,50898
hair follicle,50898
TANK-binding kinase 1,50898
chlamydiales,50898
Timur,50898
Universal Mobile Telecommunications System (UMTS),50898
Rhinology,50898
ATXN3,50898
annuity,50898
security studies,50898
New Deal,50898
Saccharomyces carlsbergensis,50898
gymnast,50898
vaccine controversies,50898
Y zeolites,50898
Gelfand,50898
Hull,50898
Lovelock gravity,50898
sexually arousing,50898
nucleotide reverse transcriptase inhibitor,50898
D. tinctorius,50898
preferred walking speed,50898
cervix cancer,50898
Phlebia radiata,50898
NGC 6441,50898
PBWM,50898
continental islands,50898
finite-difference time-domain method,50898
Derzhavin,50898
thymol blue,50898
IOI,50898
neurocutaneous syndromes,50898
pop art,50898
MonetDB,50898
French Army,50898
Viana,50898
formal semantics,50898
polytropic,50898
heart sounds,50898
Pseudokirchneriella subcapitata,50898
major urinary proteins,50898
evidence-based nursing,50898
Silicosis,50898
pseudorabies,50898
total bases,50898
carotid sinus massage,50898
Darjeeling,50898
Yoga,50898
sunset clause,50898
heparan sulphate,50898
machine gun,50898
environmental law,50898
torus action,50898
stay positive,50898
angular diameter,50898
Catalina Real-time Transient Survey,50898
insertion gain,50898
protein subunit,50898
Data reliability,50898
linea alba,50898
Stamford Hospital,50898
pro bono,50898
trichloroethanol,50898
visual field examination,50898
Omphalocele,50898
photon noise,50898
Human factor,50898
Angiotensin receptor,50898
subsarcolemmal,50898
prodromi,50898
Hutchinson-Gilford Progeria syndrome,50898
Constitutional Court,50898
Gaussian model,50898
human coronavirus OC43,50898
areflexia,50898
Ikeda map,50898
consanguine,50898
ylem,50898
ab initio modeling,50898
App Store,50898
Myrsinaceae,50898
Yamato,50898
Hubei,50898
weak consistency,50898
CeA,50898
Amazon rainforest,50898
collimated light,50898
Special Reserve,50898
Transfer function,50898
Spencerian,50898
Computational Neuroscience,50898
free field theory,50898
internal working model,50898
buy-and-hold,50898
cultural sociology,50898
canonical bundle,50898
Epworth,50898
Montane oak forests,50898
White Rabbits,50898
lithium perchlorate,50898
breathing space,50898
mastoid air cell,50898
Vibrionaceae,50898
Mashhad,50898
lucius,50898
Phytophthora capsici,50898
Sisto,50898
nerve agent,50898
Boven-Digoel,50898
viral neuraminidase,50898
intrinsic noise,50898
radical retropubic prostatectomy,50898
The Downs,50898
subdirectly irreducible algebra,50898
wild lettuce,50898
ecological resilience,50898
dark relic,50898
basis change,50898
trimethylchlorosilane,50898
acquis communautaire,50898
chemolithoautotroph,50898
Surface area,50898
Word stress,50898
Charge Coupled Device,50898
The degraded,50898
government bond,50898
orbital elements,50898
Load transfer,50898
parastichy,50898
Cone beam CT,50898
serratus anterior muscle,50898
locomotive,50898
glucagon-like peptide 1 receptor,50898
Halmahera,50898
macroglia,50898
evangelical,50898
3aR,50898
dimethyl methylphosphonate,50898
Glacial lake,50898
cubic interpolation,50898
BIGH3,50898
Leri-Weill dyschondrosteosis,50898
representation space,50898
Lake Titicaca,50898
Stipa tenacissima,50898
sestamibi,50898
glutaryl-CoA dehydrogenase,50898
arc length,50898
phenyldiazomethane,50898
auditory masking,50898
jj coupling,50898
kx,50898
optimal experimental design,50898
microfibre,50898
nonseminoma,50898
formyl-CoA,50898
palmar interosseus,50898
Nacional,50898
black-headed gull,50898
monodromy group,50898
cyclopia,50898
benzoin,50898
epidemiological methods,50898
liquid interface,50898
black hole mechanics,50898
ring fusion,50898
irrealis mood,50898
DS1,50898
Pierre Bourdieu,50898
post-spike,50898
Adenosine deaminase,50898
Virgil,50898
Sylt,50898
alphavirus,50898
working memory training,50898
San Jose River,50898
Biot,50898
Benthamite,50898
Mentawai Islands,50898
eigenstate thermalization hypothesis,50898
Superinfection,50898
mepolizumab,50898
U-300,50898
exonyms,50898
2014 Ebola outbreak,50898
extragenic,50898
TDCS,50898
Columbidae,50898
Birth asphyxia,50898
Niphates,50898
T. fasciculata,50898
Single Nucleotide Polymorphisms,50898
Rimac,50898
monstrosity,50898
Castlebar,50898
region B,50898
mean-squared error,50898
Fourier Transform Spectrometer,50898
"27,538",50898
Sr-89,50898
horizontalist,50898
Talamanca Mountains,50898
pindolol,50898
palaeobiology,50898
vaginitis,50898
displaced persons,50898
portfolio insurance,50898
Ventricular tachycardia,50898
QCD phase diagram,50898
"14,874",50898
Cogmed,50898
exceptional locus,50898
Weak interactions,50898
PRV,50898
Lake Flevo,50898
Adalia decempunctata,50898
25-hydroxyvitamin D3,50898
IL 10,50898
Earth-size,50898
Providence,50898
pentanone,50898
OPERA,50898
hydrocortisone butyrate,50898
olbia,50898
olfactory receptor,50898
keV seed,50898
FT-ICR MS,50898
finite deformations,50898
Sudoku,50898
Rhodotorula,50898
AdS black hole,50898
high terrace,50898
Langer mesomelic dysplasia,50898
NDUFA11,50898
"Johnson City, TN",50898
dialdehyde,50898
benralizumab,50898
cardiac ultrasound,50898
high-sodium,50898
European Management Review,50898
algebraic equation,50898
phyllotaxis,50898
poverty trap,50898
Arecaceae,50898
Random sequence,50898
Braunschweig,50898
Fitting ideal,50898
scale length,50898
Aeneid,50898
Haro,50898
Larus ridibundus,50898
interrupted time-series analysis,50898
sine curve,50898
Acid hydrolysis,50898
doughnut,50898
arbitrary precision,50898
lyric poetry,50898
protectionist,50898
Erving Goffman,50898
Tracheotomy,50898
linear dual,50898
nanofluidics,50898
Atomic absorption spectroscopy,50898
Linezolid,50898
exclosure,50898
syringe pump,50898
blue supergiant,50898
L-lactate dehydrogenase,50898
sublimate,50898
Psidium guajava,50898
N75,50898
urban redevelopment,50898
characteristic X-ray,50898
stellar associations,50898
Hesperiidae,50898
profile method,50898
Milhausen,50898
tropospheric ozone,50898
Bouvante,50898
exchange bias,50898
luciferin,50898
Faulkes Telescope South,50898
psychological energy,50898
peptidoglycans,50898
Stroke recovery,50898
Mew,50898
putty,50898
unemployment benefit,50898
Negative pressure wound therapy,50898
Quasi-periodic oscillations,50898
C.R.,50898
Irrawaddy dolphin,50898
educational evaluation,76727
calcis,50898
Nitrospira,50898
Interleukin 22,50898
Overnutrition,50898
Chemotherapy-induced peripheral neuropathy,50898
Low-Energy Ion Scattering,50898
OJ,50898
Citation analysis,50898
eutrophied,50898
Kreutz sungrazers,50898
Peters anomaly,50898
two-party system,50898
Engelen,50898
Interferon alfa,50898
Tape recorder,76742
corner kick,50898
trityl,50898
data-oriented parsing,50898
organosulfur,50898
public goods game,50898
interactive whiteboard,50898
Endothelial Protein C Receptor,50898
PG 1302-102,50898
gynaecological pathology,50898
Computer algebra,50898
Back pain,50898
Atovaquone,50898
Conformance checking,50898
My Lai,50898
central diabetes insipidus,50898
hard engineering,50898
Baumol,50898
Mammalian carnivores,50898
Peptic ulcer,50898
Vanadate,50898
Tensometer,50898
prosthesis implantation,50898
Prochlorococcus marinus,50898
skin peeling,50898
Trendelenburg test,50898
Southeast China,50898
Vero cell,50898
American Speech-Language-Hearing Association,50898
cucurbitacins,50898
SLTs,50898
Melnikov,50898
PWP,50898
ANF,50898
microencephaly,50898
chorangioma,50898
Ehl,50898
galactic cosmic ray,50898
pars oralis,50898
bretylium,50898
relational care,50898
RHESSI,50898
tricalcium silicate,50898
immunofixation,50898
xk,50898
Microplana,50898
dl-PFC,50898
H28,50898
hydrodehalogenation,50898
Imagenet,50898
CP110,50898
Stat2,50898
MCG,50898
X-8,50898
Curitiba,50898
distal convoluted tubule,50898
NVM,50898
8254,50898
Ward-Takahashi identity,50898
negative pressure wound therapy,50898
Allen Human Brain Atlas,50898
Resiquimod,50898
speech-language pathologist,50898
Dreyfus Affair,50898
GPIIbIIIa,50898
single-electron transfer,50898
George Mosse,50898
CFCS,50898
carnivore,50898
Tadarida brasiliensis,50898
Monsanto,50898
coumarine,50898
Domestic violence,50898
biaryl,50898
tailpiece,50898
Flagellate,50898
Swindon,50898
"cells, cultured",50898
mantle cell,50898
zirconium oxide,50898
High Mass,50898
rubber elasticity,50898
Emile,50898
MERCOSUR,50898
Template matching,50898
elliptocytosis,50898
Stat3,50898
Zola,50898
corneal epithelium,50898
genetic erosion,50898
SMC1A,50898
Procavia,50898
SIMA,50898
hyperpolarize,50898
giemsa,50898
cross-bedded,50898
Clifford algebra,50898
Galactic Ridge,50898
Stat5,50898
future medicinal chemistry,50898
Cape York,50898
M 33,50898
n22,50898
gastrointestinal system,50898
Artesunate,50898
belief functions,50898
Southwest China,50898
SLC16A9,50898
LTE4,50898
Solomon Islands,50898
peptidylarginine deiminase,50898
galactic merger,50898
claudin-1,50898
Stat6,50898
Embden,50898
calcium hydroxide,50898
choanoderm,50898
aminoglutethimide,50898
BIMA,50898
overfitted,50898
SMC3,50898
Aerophagia,50898
factor VII deficiency,50898
Sympathetic nervous system,50898
Poloxamer,50898
slime mould,50898
Vanuatu,50898
Asian Indian,50898
Parnas,50898
gravitational microlensing,50898
lagophthalmos,50898
allogamous,50898
vulcano,50898
DRB3,50898
chlorophytes,50898
citrullinemia,50898
Neocortex,50898
Orbital overlap,50898
DQ4,50898
dematiaceous,50898
Guizhou,50898
inflationary cosmology,50898
separase,50898
diradical,50898
adenopathy,50898
Oscar,50898
MP70,50898
MS 19,50898
IL-22R1,50898
reward pathway,50898
VCAN,50898
dorsal calcaneocuboid ligament,50898
SLT,50898
Half-life,50898
small-cap,50898
conformance checking,50898
Communication Function Classification System,50898
Hirzebruch,50898
beta-ureidopropionase,50898
cognitive miser,50898
interferon beta 1b,50898
Carnegie Hall,50898
Russell-Saunders,50898
Neoglyphea inopinata,50898
intermittent photic stimulation,50898
Guaramacal National Park,50898
"Savannah, GA",50898
child exposure,50898
rotating radio transient,50898
stroke medicine,50898
adenotonsillectomy,50898
Holroyd,50898
nutrition science,50898
HDV,50898
Kimmeridgian,50898
thrushes,50898
superfluids,50898
oleochemical,50898
RIRS,50898
jet fuel,50898
statistical process control (SPC),50898
succinylation,50898
Lupus erythematosus,50898
catabolic reaction,50898
L. casei,50898
TRW,50898
Dual energy x-ray absorptiometry,50898
neurocristopathy,50898
pressure cooker,50898
Vero cells,50898
aphthous ulcers,50898
randomly coiled,50898
p48,50898
Body temperature,50898
para-aortic lymph nodes,50898
150h,50898
M59,50898
cyclovirus,50898
RMM,50898
actinorhodin,50898
phosphorus cycling,50898
agarase,50898
Lps.,50898
flt-1,50898
Chusovaya River,50898
PEST sequence,50898
Keratitis,50898
Xenogeneic,50898
Asian Indians,50898
parametric resonance,50898
OSSE,50898
vivarium,50898
Transactivation,50898
mucilage,50898
Calvaria,50898
lymphocyte homing receptor,50898
ecosystem-based management,50898
EphA2,50898
IVIC,50898
two-sorted,50898
kidney stone,50898
free-radical polymerization,50898
"Pfizer, Inc.",50898
Turdus,50898
heavy meromyosin,50898
rubredoxin,50898
final 24,50898
Nephrogenic diabetes insipidus,50898
binary x-ray sources,50898
supported housing,50898
inviscid flow,50898
metal organic framework,50898
Yemenite,50898
3C 295,50898
model complete,50898
KK-theory,50898
Interaction Hypothesis,50898
International Pulsar Timing Array,50898
actualism,50898
Arcanum,50898
Latent heat flux,50898
Physarum polycephalum,50898
global solar,50898
cryptosporidium parvum,50898
Arabis,50898
iodixanol,50898
NaNO3,50898
Detritus,50898
MS 6,50898
Histone H3,50898
LOE,50898
CFU-Meg,50898
PHYLIP,50898
red laser,50898
T-cell vaccination,50898
proximity ligation assay,50898
Golimumab,50898
European Robotic Arm,50898
Lagophthalmos,50898
possibilism,50898
Sind,50898
life zone,50898
superconducting cuprates,50898
aleph,50898
Pyrus communis,50898
Reptantia,50898
tungara,50898
Mepolizumab,50898
chemosensitizer,50898
serum protein electrophoresis,50898
cranial sutures,50898
mobile genetic element,50898
Xiu,50898
perpetuum mobile,50898
scrotoplasty,50898
binary supermassive black hole,50898
Guilford,50898
SLC12A3,50898
positivism,50898
ureteroscope,50898
fluidized bed reactor,50898
linear integer programming,50898
indigenous Fijian,50898
Pure tone,50898
actual size,50898
PQM,50898
zinc sulfide,50898
Scottish Intercollegiate Guideline Network,50898
IFC,50898
product space,50898
Piecewise,50898
pyrrhotite,50898
DLC,50898
cofinalities,50898
FourStar,50898
flat tax,50898
Libyan Desert,50898
tribromoethanol,50898
TARGET2,50898
scrambler,50898
Cymbella,50898
localized solutions,50898
MALDI imaging,50898
liquid scintillation counting,50898
obsessive-compulsive spectrum,50898
Central diabetes insipidus,50898
jet1,50898
Magellan Baade Telescope,50898
Liv,50898
competency based education,50898
Miguel de Unamuno,50898
Northwestern Russia,50898
Faujasite,50898
passivates,50898
Mchinji,50898
web browser,50898
tempered representation,50898
interest rate swaps,50898
Stoma,50898
Stanford-Binet,50898
preconditioners,50898
Long QT Syndrome,50898
Functional dyspepsia,50898
Nixon administration,50898
confusion matrix,50898
Application Layer,50898
Strecker reaction,50898
epistome,50898
soy bean,50898
brivudine,50898
ETL,50898
SIS2,50898
fixed 3D,50898
Desulfobulbaceae,50898
lattice defect,50898
harmal,50898
Salima,50898
imagined community,50898
sample-and-hold,50898
carbon-13,50898
Azorin,50898
collagenases,50898
Elderly care,50898
Nitrifying bacteria,50898
video noise,50898
dynamic algorithm,50898
Dempster,50898
long-acting beta agonists,50898
congenital amegakaryocytic thrombocytopenia,50898
Mistrust,50898
malonyl-CoA decarboxylase deficiency,50898
Transfer hydrogenation,50898
extroversion,50898
vitalistic,50898
Mycobacterium Kansasii,50898
abdominal fullness,50898
chlorophyte,50898
road traffic incident,50898
hexadecane,50898
Kunming,50898
surrogate model,50898
jet2,50898
Peganum harmala,50898
active pharmaceutical ingredients,50898
blood-oxygen,50898
Mersin,50898
hyponasality,50898
Vector Meson Dominance,50898
circuit board,50898
Iodixanol,50898
Lonchura striata,50898
joint committee,50898
yield management,50898
free-floating planets,50898
Adana,50898
photonic bandgap,50898
Home birth,50898
nJ,50898
concert hall,50898
Doppler shifting,50898
quantum walk,50898
affective memory,50898
principal nucleus,50898
precess,50898
fundus camera,50898
half-cell reaction,50898
longitudinal relaxation time,50898
poloxamer,50898
Synteny,50898
Tarsus,50898
mixing test,50898
Poecile,50898
Maurice Barres,50898
spin waves,50898
dielectric mirror,50898
nitrifiers,50898
ras/MAP kinase pathway,50898
speech pathologist,50898
Prochloron,50898
continuous stirred-tank reactor,50898
Legume,50898
Adjective Check List,50898
Ljubjana,50898
Maxwell relation,50898
National Patient Safety Agency,50898
cumulative prospect theory,50898
crossword puzzle,50898
barbed suture,50898
pyrazinecarboxamide,50898
Ponatinib,50898
Diclofenac,50898
malignant rhabdoid tumour,50898
karyology,50898
Greater Awyu,50898
polymeric membranes,50898
Aortic rupture,50898
pudicitia,50898
Urea cycle,50898
Globoid cell leukodystrophy,50898
classical swine fever,50898
bipm,50898
Androgen deprivation therapy,50898
idiopathic orbital inflammatory disease,77164
Intramuscular injection,50898
democracy promotion,50898
brain waves,50898
Rhizoctonia solani,50898
coupled map lattice,50898
A15,50898
sharing agreements,50898
Irritable bowel syndrome,50898
esophageal neoplasms,50898
uterine artery embolisation,50898
Gender dysphoria,50898
Proto-Germanic,50898
US I,50898
pembrolizumab,50898
liber amicorum,50898
Portuguese people,50898
National Weather Service (NWS),50898
analytic philosophy,50898
Medieval Climate Anomaly,50898
IOIS,50898
suicide inhibitor,50898
PcI,50898
trolley,50898
Stephen Holland,50898
Abusive head trauma,50898
Gene targeting,50898
parasite stress,50898
everyday behavior,77192
hidden Markov Model,50898
The incentive,50898
Kupang,50898
pharmacoepidemiology,50898
Geometric Hashing,50898
Chimerism,50898
Contextualization,50898
MIFA,50898
SARP,50898
SMIT,50898
Semantic technology,50898
elliptical geometry,50898
Protein Z,50898
George Dalgarno,50898
syllogistic,50898
Greer,50898
Resource dependence theory,50898
phenylethylamines,50898
mood-congruent memory,50898
queer theory,50898
total derivative,50898
piece rate,50898
Sleep spindles,50898
Existential phenomenology,50898
common bean,50898
Health Extension,50898
spatial turn,50898
Thermal paper,50898
Philips Natuurkundig Laboratorium,50898
class number,50898
Baire property,50898
Polycythemia vera,50898
Unix-like,50898
Bhattacharya,50898
hightech,77227
Laryngopharyngeal reflux,50898
egg freezing,50898
Habitat III,50898
Bayesian Belief Network,50898
sailor,77232
Anterior segment dysgenesis,50898
water bugs,50898
Neonatal infection,50898
cypria,50898
Self-help,50898
Endoscopic surgery,50898
Enolase,50898
Co-trimoxazole,50898
The spine,50898
Pentobarbital,50898
3D Scanner,50898
nativist,50898
sunk costs,50898
handgun,50898
Dissociative identity Disorder (DID),50898
M74,50898
Joint attention,50898
stock option,78431
mitochondrial fusion,50898
singular cardinal,50898
disease surveillance,50898
Sex offender,50898
Neuromodulation,50898
spectrum radio,50898
oxamide,50898
methylcyclopropane,50898
Geidar Dzhemal,50898
Molecular engineering,50898
micronutrient deficiencies,50898
predicate logic,50898
Natriuretic,50898
load profile,50898
visual programming,50898
benzyne,50898
ascomycetous,50898
environmental management system,50898
multi-task learning,50898
loop group,50898
yarn,50898
tidal forcing,50898
Cuello,50898
Computer-Supported Collaborative Learning (CSCL),50898
Mutare,50898
D-type,50898
Gran Sasso,50898
Elisabeth Eybers,50898
instrumentation amplifier,50898
Isotachophoresis,50898
Nostra aetate,50898
universal form,50898
Color constancy,50898
Harmony Korine,50898
Grotius,50898
Quantified Self,50898
Saint Lucia,50898
perfluorinated alkylated substances,50898
risky business,50898
Protestant culture,50898
Muscular dystrophies,50898
Periodontology,50898
amoebiasis,50898
Gasteria,50898
size matters,50898
supercompact cardinal,50898
User generated content,50898
Human resource management,50898
ultracold atom,50898
Proctitis,50898
NGC 7793,50898
Interleukin-17A,50898
Earth System Research Laboratory,50898
oligopoly theory,50898
structured operational semantics,50898
octave equivalence,50898
Maxillomandibular advancement,50898
enactivism,50898
Phaeosphaeriaceae,50898
Cyclitol,50898
critical period hypothesis,50898
Transverse plane,50898
Anterior cruciate ligament reconstruction,50898
Rotaxanes,50898
bond valence,50898
Moneydie,50898
N-t,50898
Anti-Counterfeiting Trade Agreement (ACTA),50898
embodied cognitive science,50898
biophilia,77320
Blood coagulation,50898
Platypus cylindrus,50898
Chamfer,50898
Iodine-124,50898
MSTIS,50898
Correlogram,50898
eutrophicated,50898
Global change,50898
Acute promyelocytic leukemia,50898
Circadian rhythms,50898
African trypanosomiasis,50898
LILRB5,50898
methodological skepticism,50898
oilseed,50898
9/11 terrorist attacks,50898
urban hierarchy,50898
Cladoceran,50898
financialisation,50898
Human Papilloma Virus,50898
Chronic obstructive pulmonary disease (COPD),50898
depsipeptides,50898
spark plasma sintering,50898
Microscopic colitis,50898
parity-violating,50898
Cotonou,50898
needle aspiration biopsy,50898
Information-theoretic,50898
underemployment,50898
Quantum decoherence,50898
interactive proof,50898
northern wheatear,50898
Urban air,50898
Computer science,50898
thermoelectric cooler,50898
Direct imaging,50898
white lie,50898
M-matrices,50898
Shadow,50898
Keratoconus,50898
Alkylation,50898
CNAP,50898
Kosterlitz-Thouless,50898
Masaka District,50898
Smart TV,50898
faultlines,50898
Second language,50898
shear rheology,50898
1st assistant director,50898
Schengen,50898
baryon acoustic oscillations,50898
rotation-powered pulsar,50898
Event-B,50898
Social health insurance,50898
multinational enterprise,50898
multidimensional model,50898
Phase locking,50898
FIFPro,50898
Third International,50898
pricing game,50898
environmental justice,50898
confabulation,50898
directional selection,50898
Erythraeidae,50898
LPF,50898
Schnider,50898
Co-teaching,77386
Real Change,50898
Rapoport,50898
Genocide studies,50898
espionage,50898
unified field theory,50898
Hansen solubility parameter,50898
Polygraph,50898
risk governance,50898
Nazism,50898
noradrenergic cell groups,50898
Protease-activated receptor,50898
alarm bells,50898
anhydrous hydrochloric acid,50898
atomic theory,50898
Acyl-CoA oxidase,50898
Bioassay-directed fractionation,50898
Disaster risk reduction,50898
Serum amyloid P component,50898
attachment Q-sort,50898
sacralization,50898
quagga mussel,50898
Martha Nussbaum,50898
Friends,50898
Abu Ghraib prison scandal,50898
nocebo,50898
modeling perspectives,50898
Economic inequality,50898
aeolian erosion,50898
Chronic intestinal pseudo-obstruction,50898
The jump,50898
Reactive Attachment Disorder (RAD),50898
Anal Intraepithelial Neoplasia,50898
Peroxiredoxin,50898
Paroxysmal nocturnal hemoglobinuria,50898
Bromate,50898
basidiocarp,50898
UDHR,50898
Liquid biopsy,50898
Ottawa Knee Rules,50898
Competency Management System,50898
.dm,50898
downward entailing,50898
Crustose,50898
key market,50898
affective piety,50898
Hyperosmotic,50898
Pollen analyses,50898
Frechet space,50898
K-body,50898
Helminths,50898
spiritual reading,50898
Albinism,50898
constructive set theory,50898
Visual input,50898
lentic ecosystems,50898
proem,50898
SIGNAAL,50898
Third Reich,50898
interchannel,50898
nanofluid,50898
free charge carriers,50898
Personalized search,50898
COMPUSTAT,77449
descriptivism,50898
picture book,50898
Ruffia,50898
cactus,50898
Behavior therapy,50898
Reddy,50898
uman,50898
Hepatocellular adenoma,50898
VALKENBURG,50898
bulk metallic glasses,50898
oil dispersants,50898
extensively drug-resistant tuberculosis,50898
Auramine O,50898
Speech sound,50898
differential encoding,50898
IL1RAP,50898
NPHP1,50898
DEDD,50898
dnaX,50898
harvest records,50898
ACTN1,50898
slow life,50898
Hoodia,50898
Kigoma,50898
phase 10,50898
tetrode,50898
WebCite,50898
standard operating procedure,50898
Earth mass,50898
Palestine,50898
Harlow Shapley,50898
Tatar language,50898
Proactivity,50898
Drente,50898
BGB,50898
peripatric speciation,50898
Corona Australis,50898
nuclear export signal,50898
reverse electron flow,50898
green turtle,50898
Fabian,50898
ZNF423,50898
neuregulin-1,50898
toy theatre,50898
abundancy,50898
methyl aminolevulinate,50898
MonteCarlo,50898
zero-marking,50898
C. caviae,50898
snow-water equivalent,50898
cutworm,50898
Microclimate,50898
JASP,50898
quinapril,50898
posterior talofibular ligament,50898
power shift,50898
Montalban,50898
sleep architecture,50898
Kuznets swing,50898
antagomir,50898
strong safety,50898
ign,50898
orbital eccentricities,50898
ambrosia fungi,50898
Hudson Bay Lowlands,50898
spectral decomposition,50898
CDK7,50898
fat soluble vitamin,50898
nafamostat,50898
Hyper-Kamiokande,50898
Mephedrone,50898
eCommerce,50898
2000 AD,50898
Castilla-La Mancha,50898
inflationary epoch,50898
Chaetoceros,50898
counterterrorist,50898
motional narrowing,50898
Tertullian,50898
internet gaming,50898
Isotopic enrichment,50898
angiotensin-converting enzyme inhibitor,50898
faith healers,50898
Templeton,50898
West Nordic,50898
functional magnetic resonance imaging (FMRI),50898
MYL3,50898
Trichogrammatidae,50898
fh,50898
distributed cache,50898
Royal Dutch Meteorological Institute,50898
The boost,50898
ponatinib,50898
absolute threshold,50898
sucralfate,50898
measure-theoretic sense,50898
Thinness,50898
paludification,50898
sonorant,50898
Muyu,50898
organonickel,50898
Rhinoceros,50898
histogenesis,50898
Midodrine,50898
WORQ,50898
hash table,50898
Sf21,50898
Khartoum,50898
Ellsworth Mountains,50898
PANH,50898
longue duree,50898
sub-fossil,50898
raffinose,50898
UNC5A,50898
RapidFire,50898
alcohol dependence syndrome,50898
Venezuelan Andes,50898
Annapurna,50898
spin valve,50898
inhaled steroid,50898
Kolmogorov entropy,50898
cognitive skill,50898
globalist,50898
Emir,50898
IQD,50898
GALEX,50898
intersection product,50898
CxG,50898
DWT,50898
microbial food web,50898
strategic urban planning,50898
Cargill,50898
Atlantic Meridional Transect,50898
Papilledema,50898
Upper esophageal sphincter,50898
gastro-enteritis,50898
lumican,50898
TUBG1,50898
Delia antiqua,50898
Grantham,50898
phosphodiesterase-4 inhibitor,50898
tabard,50898
Attachment-based psychotherapy,50898
Statistics Denmark,50898
PIKfyve,50898
MUD,50898
verb phrase,50898
Palestinian Territories,50898
TMEDA,50898
GridFTP,50898
palatine tonsil,50898
DPA-713,50898
CYA,50898
RBMT,50898
NPPA,50898
Hela cell,50898
Anatomical snuff box,50898
benthic layer,50898
Lung volume,50898
void ratio,50898
silicate perovskite,50898
3D vision,50898
fabric softener,50898
Respectable,50898
glycine site,50898
pruritic,50898
Intestinal parasite,50898
plaggic,50898
ocular straylight,50898
ancrod,50898
Kingsley,50898
Fluid Attenuated Inversion Recovery,50898
Sri Lankan Muslims,50898
Indo,50898
Linear polarizer,50898
Grasshopper,50898
Frost weathering,50898
Hartmann number,50898
Dorum,50898
Ebola virus,50898
historical volatility,50898
Lantian,50898
CRI,50898
multi-Si,50898
saponite,50898
homestead,50898
Shigellosis,50898
MYH9,50898
monophthongisation,50898
MUMmer,50898
Merkle,50898
chromosome rearrangement,50898
phylogenetic comparative methods,50898
polymer degradation,50898
coagulative necrosis,50898
RBB,50898
classical liberalist,50898
mainland China,50898
FoxP,50898
KCNQ2,50898
Desargues,50898
CARMA,50898
Europid,50898
hemophagocytic lymphohistiocytosis,50898
legal exemptions,50898
behavior modification,50898
human-animal relations,50898
TIFF,50898
Sargassum,50898
interreligious dialogue,50898
augmentation ideal,50898
level I evidence,50898
A. mellifera,50898
colour temperature,50898
hemorrhagic diathesis,50898
onychodystrophy,50898
NaBr,50898
Main-Danube canal,50898
Los Gatos,50898
Environmental change,50898
bosutinib,50898
Caspofungin,50898
Essential Tremor,50898
Friston,50898
Direct examination,50898
Mangyshlak,50898
Panton-Valentine leukocidin,50898
Passion,50898
public intellectual,50898
unicornuate uterus,50898
Oceanic languages,50898
Kamchatka,50898
accumulation mode,50898
elastic instability,50898
Cd27,50898
pseudohypoparathyroidism,50898
patient hotel,50898
Charta 77,50898
OS X,50898
wellhead,50898
AmsteRdam,50898
Cantor space,50898
Kerala,50898
Kuroshio,50898
Carrefour,50898
relaxin,50898
kuehniella,50898
carotid ultrasonography,50898
pereiopod,50898
e-MERLIN,50898
scale-free networks,50898
lexical category,50898
Umklapp scattering,50898
Multiple Sleep Latency Test,50898
tailing pond,50898
Pamplona,50898
LTF,50898
forest stream,50898
SLC25A24,50898
PLK,50898
HYP,50898
nuclear reaction,50898
plaster-of-Paris,50898
Trunks,50898
relaxation exercise,50898
rotation curves,50898
Leeward Antilles,50898
gamma ray burst,50898
Visco-elastic,50898
Hygroscopic,50898
Inferno,50898
dysmyelination,50898
observational equivalence,50898
land surface temperatures,50898
FeH,50898
EVI-1,50898
effective topos,50898
methylglutaconyl-CoA hydratase,50898
millepora,50898
HIPS,50898
MMG,50898
Hamilton Depression Rating scale,50898
Hebrews,50898
QTc interval prolongation,50898
HPCAL1,50898
MBR,50898
EVPI,50898
microcanonical,50898
light polarization,50898
Google Alerts,50898
oral-anal contact,50898
Iouik,50898
her1,50898
tendon sheath,50898
Microgrid,50898
anaesthesiologist,50898
oocyte donation,50898
Imperialism,50898
Discrete choice,50898
I$,50898
LIESST,50898
EphA4,50898
Her2/neu,50898
hypophonia,50898
extracorporeal life support,50898
neurodynamics,50898
Hsp40,50898
somatosensory pathway,50898
Ocular straylight,50898
motivational salience,50898
D66,50898
inkjet printer,50898
Schimmelpenninck,50898
Brassicales,50898
ARTES,50898
bee pollen,50898
yellow perch,50898
SPARC,50898
pRB,50898
stereotactic surgery,50898
oppositional-defiant disorder,50898
Julia,50898
androstadienone,50898
turnstile,50898
florbetapir,50898
catarrhines,50898
antisemitism,50898
nota,50898
sausage,50898
PGmc,50898
sodium butyrate,50898
blood-testis barrier,50898
CRAN,50898
photoelectric,50898
Eemian stage,50898
Bangor,50898
Auvergne,50898
methyltrienolone,50898
migration crisis,50898
RAASi,50898
flurazepam,50898
mesopelagic,50898
Chemical reaction,50898
PV system,50898
Semibalanus balanoides,50898
UFS,50898
carbyne,50898
syntopy,50898
bar code,50898
succulents,50898
Hypercapnia,50898
histadine,50898
HerMES,50898
Deleuze,50898
fiber optic sensor,50898
Ischnacanthus,50898
anthrosols,50898
CAMK2A,50898
Principal Response Curve,50898
blue phase,50898
algebraic set,50898
GALC,50898
quadratic discriminant analysis,50898
dugesiid,50898
binomial probability,50898
senesce,50898
medical subject heading,50898
bench-press,50898
quantum superposition,50898
Side Effect,50898
Generalized Anxiety Disorder 7,50898
mollusc shell,50898
Head trauma,50898
Sean,50898
Qazvin,50898
Thalassiosira pseudonana,50898
Rad21,50898
cyclohexenone,50898
Psychoticism,50898
perineal hernia,50898
acceptance angle,50898
exchange spring magnet,50898
Insecticidal,50898
Gerona,50898
sexual infidelity,50898
Clermont-Ferrand,50898
radio 21,50898
breast lump,50898
T suppressor cells,50898
BioCyc,50898
DUX4,50898
baddeleyite,50898
phosphazene,50898
Free Energy Principle,50898
CWL,50898
stele,50898
cox-2,50898
T-tubule,50898
emergent gravity,50898
tag recordings,50898
pegylated interferon-alpha-2a,50898
personal progress,50898
feeding guild,50898
Population III,50898
CAMK2B,50898
gall stones,50898
proctocolitis,50898
Medians,50898
entheses,50898
Comintern,50898
periodontal pathology,50898
Cello Suite,50898
hole argument,50898
Sri Lankan Tamils,50898
E-box,50898
north point,50898
peach extract,50898
LT-1,50898
ecotourism,50898
DHD,50898
peritubular myoid cells,50898
Paul Faulkner,50898
IHH,50898
flavin group,50898
GNAS,50898
benefit-cost ratio,50898
S III,50898
Electra,50898
glutathione disulfide,50898
AHA1,50898
PSSI,50898
juvenile arthritis,50898
Hdac3,50898
Undetectable,50898
polysomy,50898
gradient-related,50898
gamma-butyrobetaine dioxygenase,50898
sodium arsenate,50898
wild carrot,50898
dinnertime,50898
pelvic outlet,50898
Tatarstan,50898
Apraxia,50898
Phytogeographically,50898
Hemigrapsus takanoi,50898
Riedel,50898
stipe,50898
Ravuconazole,50898
Leviticus,50898
beta-2 adrenergic receptor,50898
RARP,50898
rhinoplasties,50898
topical medication,50898
typhlitis,50898
UniFrac,50898
Lanatoside C,50898
MADS-box,50898
octanoyl-CoA,50898
betsileo,50898
sarcoplasmatic reticulum,50898
pes planus,50898
fascia lata,50898
Dentate gyrus,50898
Atopobium,50898
Mahalanobis distance,50898
J2,50898
tubulovillous,50898
Pou4f1,50898
EEGLAB,50898
ELECTRE,50898
nipecotic acid,50898
13B,50898
hybrid theory,50898
Rades,50898
natural deaths,50898
sex discrimination,50898
Lothian,50898
mutation-selection balance,50898
articular facet,50898
patristic,50898
psychosine,50898
Google Search,50898
oligotrophic lake,50898
P-bodies,50898
avea,50898
cineradiography,50898
ELP3,50898
XIII,50898
thermokarst,50898
Eriopis,50898
ADM formalism,50898
Elops lacerta,50898
cyclic nucleotide-binding domain,50898
polychlorinated dibenzodioxins,50898
water gas,50898
MYA,50898
universal healthcare,50898
antisepsis,50898
G major,50898
tomato ketchup,50898
DLP projector,50898
exopod,50898
Simkania,50898
Mycobacterium ulcerans,50898
Olaflur,50898
yeast infection,50898
Medical Devices Directive,50898
Seymour Chwast,50898
cuatro,50898
HTR1A,50898
deep homology,50898
strategy implementation,50898
GVM,50898
Brazilian highlands,50898
experience curve,50898
The Divine Comedy,50898
River Main,50898
CBWT,50898
health systems strengthening,50898
mesolimbic pathway,50898
Sierra Nevada de Merida,50898
genomic selection,50898
gluteus minimus,50898
future tense,50898
lymphoid follicle,50898
Famotidine,50898
Isalo,50898
Depolymerization,50898
Importance sampling,50898
supertubes,50898
nc-Si,50898
mVO,50898
Wilhelmy plate,50898
enolization,50898
hemi,50898
Cell Cycle,50898
brain-tumor,50898
Ethmalosa fimbriata,50898
runic,50898
North Atlantic Igneous Province,50898
Brescia,50898
SGAP,50898
Salafi,50898
water-use efficiency,50898
MFN2,50898
SH3BP2,50898
polypeptide N-acetylgalactosaminyltransferase,50898
Biophysical Journal,50898
egocentrism,50898
Cape coloured,50898
Rhine-Meuse Delta,50898
computably enumerable set,50898
Relaxin,50898
JAM3,50898
database mining,50898
morning/evening,50898
244Pu,50898
temporal poles,50898
L-Carnitine,50898
Honey bee,50898
leishmanicidal,50898
Behavioural therapy,50898
SH3TC2,50898
Mulsant,50898
radioiodine therapy,50898
White race,50898
Pbx1,50898
hemlock,50898
Zel'dovich,50898
adjudicated cases,50898
Kibwezi,50898
varietal,50898
hot cathode,50898
AHI1,50898
medullary cystic kidney disease,50898
fennel pondweed,50898
trypanosomiasis,50898
Mugil cephalus,50898
Prasugrel,50898
Malvaceae,50898
Juncus subnodulosus,50898
hypoxanthine guanine phosphoribosyltransferase,50898
Parathyroidectomy,50898
Euglenophyceae,50898
Tcf12,50898
The vibrations,50898
GML,50898
GVAX,50898
photopolymer,50898
antimony potassium tartrate,50898
hydraulic fracturing,50898
perihelia,50898
synaptosome,50898
major/minor,50898
Taklimakan desert,50898
AP5,50898
stellar dynamics,50898
hormone-sensitive lipase,50898
Antsirabe,50898
ITPKC,50898
methcathinone,50898
LILRB1,50898
Particle Swarm Optimization,50898
LPIN1,50898
v-Src,50898
recreational divers,50898
direct Factor Xa inhibitor,50898
KIAA0319,50898
Gunnera,50898
BSCL2,50898
Chandra X-ray observatory,50898
knickpoint,50898
VASA,50898
Idotea balthica,50898
red-green-blue,50898
Crab Nebula,50898
xerophytic,50898
"2,5-dimethylfuran",50898
BAG domain,50898
3I,50898
operation Cast Lead,50898
rookery,50898
FKM,50898
"2,4-dimethylaniline",50898
simple complex,50898
la recherche,50898
mu problem,50898
depersonalisation,50898
PARPi,50898
Half-Life 2,50898
cryo-preserved,50898
Telos,50898
cubic millimetre,50898
troubled families,50898
Malesian region,50898
UHD,50898
RCW 120,50898
Experimental evolution,50898
biomesh,50898
glucocorticosteroid,50898
Asperger Syndrome,50898
invasive angiography,50898
Genova,50898
epiphenomenal,50898
LNG,50898
Kurtosis,50898
heart valve disease,50898
L0,50898
Coccinellidae,50898
coccosteids,50898
conformal Killing equation,50898
insectivore,50898
Sox10,50898
Nature Genetics,50898
spin valves,50898
Hemichromis fasciatus,50898
constant contact,50898
proconvulsant,50898
BAG1,50898
milieu interieur,50898
infest,50898
ostium primum,50898
decussatio,50898
Tatar,50898
food chemistry,50898
integrated carbon observation system,50898
inhaled anesthetic,50898
Marowijne,50898
Typha latifolia,50898
sub-Sahara,50898
starburst galaxies,50898
coal seam gas,50898
Neomycin,50898
HSB,50898
Microbotryomycetes,50898
Betsileo,50898
health extension,50898
bronchopneumonia,50898
NIBP,50898
Boraginaceae,50898
displacement vector,50898
NEFL,50898
Richardson-Lucy deconvolution,50898
isoline,50898
drospirenone,50898
Ets-1,50898
metagabbros,50898
NOTCH4,50898
mononucleosis,50898
MAUDE,50898
AFF,50898
logging truck,50898
cognitive distortion,50898
ischnacanthiform,50898
super star clusters,50898
ionising radiation,50898
Brentuximab vedotin,50898
G29-38,50898
Semen quality,50898
stable isotope fractionation,50898
ravuconazole,50898
primitive reflexes,50898
electrical resistivity imaging,50898
experience curves,50898
FKBP9,50898
Penninic,50898
Forbidden,50898
ID4,50898
extracellular field potential,50898
marine radar,50898
bio-oil,50898
Hamilton anxiety rating scale,50898
MNI,50898
Indo-China,50898
fibre optic,50898
PRAME,50898
fedotozine,50898
landfill gas,50898
Triplicate,50898
Type-I collagen,50898
dural ectasia,50898
oxaloacetate decarboxylase,50898
Vojvodina,50898
L-fucose,50898
Stereophotogrammetry,50898
Adiantum,50898
NICO,50898
Jinsha,50898
Argusianus,50898
basic atom,50898
Tp53,50898
streptozocin,50898
RaIA,50898
Spin(7),50898
medetomidine,50898
cystic medial degeneration,50898
Training set,50898
Genetic correlation,50898
disarmament,50898
SPCA,50898
ki67,50898
idiosoma,50898
cicatrization,50898
Aseptic meningitis,50898
HIV-associated nephropathy,50898
DHPR,50898
southeast Brazilian,50898
infection ratio,50898
Kidney International,50898
N-8,50898
CHCA,50898
fast fission,50898
NT$,50898
placoderms,50898
triuret,50898
Mass flux,50898
NBA,50898
TBX20,50898
second-degree relative,50898
thermal conductance,50898
dihydrolipoyl dehydrogenase,50898
topical steroid,50898
Sass,50898
Jialing,50898
amphiphile,50898
Inosine,50898
nuchal rigidity,50898
M. viridis,50898
LMPS,50898
Chromogenic,50898
mycobactin,50898
Littorina littorea,50898
flusilazole,50898
oroclinal bending,50898
bayberry,50898
phytomelan,50898
antithymocyte globulin,50898
Pressure Swing Adsorption,50898
Bothnian Sea,50898
Hamilton depression rating scale,50898
hitchhike,50898
Anti-de Sitter spacetime,50898
TFTP,50898
Faulkes Telescope North,50898
Oksapmin,50898
cuprous chloride,50898
Shahram Entekhabi,50898
Bombay,50898
direct mail,50898
Trueman,50898
smallpox,50898
telecollaboration,50898
Beilinson,50898
industrial ecology,50898
Glabbeek,50898
gag protein,50898
Central Eastern,50898
emperor penguin,50898
neurochemical pathology,50898
investor protection,50898
Regulatory Focus Theory,50898
MoID,50898
causal system,50898
Capel,50898
antigen-antibody interaction,50898
capabilities approach,50898
Anodontites,50898
Western Province,50898
Iliad,50898
social tagging,50898
Schwinger,50898
hydrogen sensor,50898
Massachusetts Bay Transportation Authority,50898
plasma-enhanced chemical vapor deposition,50898
Annunciation,50898
social loafing,50898
Portuguese colonial war,50898
The nexus,50898
economic rent,50898
streptococcus,50898
general standard,50898
Aedes albopictus,50898
Richard Drew,50898
swine fever,50898
word sense induction,50898
local binary patterns,50898
Saccharomyces uvarum,50898
Zwaag,50898
Davenport,50898
igneous differentiation,50898
nuclear fuel cycle,50898
MHLW,50898
software reliability,50898
distance indicator,50898
Viet,50898
oxalyl chloride,50898
creeping flow,50898
educational software,50898
digital rights management,50898
postcolonialism,50898
antipodes,50898
ZaK,50898
Healthy Choice,50898
Israeli-Palestinian conflict,50898
mutated citrullinated vimentin,50898
pure sets,50898
electoral studies,50898
Environment Agency,50898
Amsterdam Airport Schiphol,50898
embedded software,50898
Ahmedabad,50898
glocalization,50898
Fulde-Ferrell-Larkin-Ovchinnikov (FFLO) phase,50898
Holy Crown,50898
cinematographer,50898
majority rule.,50898
"Montgomery County, Maryland",50898
type I hypersensitivity,50898
cohomology theory,50898
Organizational performance,50898
Electrocorticography,50898
7074,50898
Rituals,50898
Net Present Value,50898
Hathaway,50898
electrocyclization,50898
Messier 4,50898
spring river,50898
Siegel modular form,50898
CLSC,50898
development cooperation,50898
Social Identity Theory,50898
Ricci tensor,50898
hyaloclastite,50898
SUDS,50898
Phytogeography,50898
social validation,77232
Sinterklaas,50898
logical language,50898
statistical quality control,50898
CM-field,50898
Hyperspectral imaging,50898
MultiSystemic Therapy (MST),50898
audience segmentation,50898
high impact polystyrene,50898
forensic radiology,50898
subjective probability,50898
circular segment,50898
Susan Haack,50898
Sakha Republic,50898
entropy estimation,50898
comparatist,50898
oocyte cryopreservation,50898
Shane,50898
Solow model,50898
Western province,50898
SDSS-III,50898
existential phenomenology,50898
air conditioning,50898
code analysis,50898
mind-body problem,50898
artificial language,50898
nonnegative rank,50898
microstrip detector,50898
microbial loop,50898
anal fistula,50898
DySi,50898
emotives,50898
campesino,50898
Crowder,50898
handbiking,50898
fundamental particle,50898
Agaricus bisporus,50898
nodular basal cell carcinoma,50898
Dirichlet tessellation,50898
slice theorem,50898
Loose,50898
Melinda Cooper,50898
Mary Stuart,50898
Sephardic,50898
evidence management,50898
endogamy,50898
marginal revenue,50898
sacrocolpopexy,50898
sustainability accounting,50898
cookbook,50898
linear temporal logic,50898
programmable logic device,50898
Nuclear envelope,50898
personalized search,50898
art music,50898
BVP,50898
City Network,50898
evangelicalism,50898
EU-US Open Skies agreement,50898
Lebanese diaspora,50898
speech impairment,50898
metastasise,50898
Integrase,50898
bounded operator,50898
European Neighbourhood Policy,50898
TFL,50898
ga,50898
comparative negligence,50898
internationalist,50898
gap dynamics,50898
indentured labourer,50898
styrofoam,50898
Sensory memory,50898
paraxial approximation,50898
urban resilience,50898
carotid sinus syndrome,50898
transvection,50898
baseband,50898
Spring Breakers,50898
philosophical logic,50898
Okanagan Basin,50898
nutrient pollution,50898
granulosa cell tumor,50898
Markov Additive Process,50898
Equilibrium selection,50898
regression algorithms,50898
perfluoroalkane,50898
Ad gentes,50898
migmatite,50898
cyclotomic field,50898
anticarcinogen,50898
concurrent computation,50898
WALS,50898
inaccessible cardinal,50898
kernel regression,50898
CZF,50898
International Sociological Association,50898
Niphargidae,50898
multi-trophic,50898
majority-minority,50898
occipital bone,50898
modelling language,50898
bowshock,50898
bibliometrically,50898
titrate,50898
in-the-money,78431
mirror symmetric,50898
John Burnside,50898
polyol pathway,50898
LIM domain,50898
Fungal infection,50898
SPRED1,50898
Mehran,50898
crypsis,50898
decay scheme,50898
boot,50898
Aldehyde dehydrogenase,50898
gregarine,50898
East Indies,50898
CCF,50898
motorcycle,50898
neonatal infection,50898
atypical bacteria,50898
DNM2,50898
glycomimetic,50898
OAA,50898
H bridge,50898
Breakpoint,50898
CCR8,50898
Orthotomus atrogularis,50898
Perforant path,50898
MHRA,50898
tension pneumothorax,50898
Stuttgart,50898
sternites,50898
Kotelny Island,50898
free nerve endings,50898
Gorbachev,50898
Legendre polynomials,50898
loquat,50898
SBML format,50898
niacin,50898
mutism,50898
cannabidiol,50898
protozoon,50898
KISS,50898
persistent elevation,50898
DOCK,50898
Pteridaceae,50898
IMSC,50898
Trichastoma rostratum,50898
Sahul Shelf,50898
Quinapril,50898
Glucocorticosteroid,50898
rubella virus,50898
Iopamidol,50898
DMPK,50898
NFATc1,50898
ALDH1L1,50898
sodium dithionite,50898
Self-transcendence,50898
Lille,50898
endolymph,50898
triple intervention,50898
long-period variable star,50898
GNAS1,50898
steroid hormone receptor,50898
500 kHz,50898
chromosome aberration,50898
RNASEL,50898
ecological guilds,50898
Interactome,50898
Amnestic,50898
M94,50898
myoglobinuria,50898
S90,50898
cycle 12,50898
holoplankton,50898
Model A,50898
pyrimidinedione,50898
OPA3,50898
orocline,50898
opsonisation,50898
Tianshan Mountains,50898
wood fibre,50898
fixed effects model,50898
Ring I,50898
Semantic memory,50898
glycoprotein IIb/IIIa,50898
Axitinib,50898
Estrone,50898
D-shape,50898
ecological governance,50898
plant cell wall,50898
ximelagatran,50898
Bemaraha,50898
candidate phylum,50898
H. elongata,50898
DKI,50898
clara cell,50898
Church Slavonic,50898
pneumoscrotum,50898
Juncus,50898
Madin-Darby canine kidney cells,50898
Hakuho,50898
Pisum,50898
SGCB,50898
cycle 19,50898
Termite,50898
Ectopic calcification,50898
f1,50898
Lagrangian submanifold,50898
dysgenics,50898
Carex nigra,50898
tobacco epidemic,50898
heterofermentative,50898
More experience,50898
hairpencils,50898
Fmo5,50898
G22,50898
hair bleaching,50898
hyperiid,50898
LVO,50898
Centraalbureau voor Schimmelcultures,50898
Yangtze River basin,50898
Iopromide,50898
gravitinos,50898
resources depletion,50898
Ring II,50898
frill,50898
capsular ligament,50898
Du145,50898
CYC1,50898
First local,50898
Rifampicin,50898
MycoBank,50898
osmoregulatory,50898
spinal neuron,50898
Flavobacteria,50898
protonated benzene,50898
Oryza sativa,50898
Iohexol,50898
Metropolis-Hastings algorithm,50898
Vaccinia virus,50898
long-term spatial memory,50898
LILRA3,50898
Sapium,50898
HbeAg,50898
Sulfate,50898
preganglionic neurons,50898
ideational apraxia,50898
CAPZ,50898
thyrotropin releasing hormone,50898
Swedish Research Council,50898
SPOT,50898
PLoS Genetics,50898
Juglans,50898
geoneutrino,50898
Bacteroidia,50898
statistical sampling,50898
Fipronil,50898
12-O-tetradecanoylphorbol-13-acetate,50898
Holtet,50898
SOD1 G93A,50898
Urca,50898
Weberbauerocereus,50898
geometric isomer,50898
Derbent,50898
L.A.,50898
promontory,50898
refugium,50898
Kcnip2,50898
electron-donating group,50898
Nitro,50898
Grammitidaceae,50898
The NAP,50898
stereoscopic view,50898
biogenic silica,50898
tomotherapy,50898
study heterogeneity,50898
masking effects,50898
castanopsis,50898
axonemal,50898
GNAS complex locus,50898
sarcalumenin,50898
CSTF1,50898
Emesis,50898
hooding,50898
Polyamine,50898
Cankiri,50898
Neoraimondia,50898
cherries,50898
RHOXF2,50898
CDKN1B,50898
Master Class,50898
antihypertensive agent,50898
UQCRFS1,50898
neuropeptide Y receptor Y1,50898
Jak-STAT,50898
p120-catenin,50898
cdh23,50898
Vav2,50898
uricase,50898
GPAM,50898
quinoid,50898
Bone erosion,50898
trichohyalin,50898
immune checkpoints,50898
FOXO,50898
POP4,50898
chemotaxonomical,50898
Lanyu,50898
armature,50898
development arrested,50898
Lateral ventricle,50898
local maximum,50898
FEU,50898
sucrose synthase,50898
Enterohepatic circulation,50898
SCA-1,50898
Titer,50898
insulin receptor substrate 1,50898
Trojan horses,50898
kidney arteries,50898
ADP receptor,50898
The neurologist,50898
species description,50898
Malrotation,50898
RASGRP2,50898
Glycosyl,50898
complete protein,50898
complex partial,50898
clonal plant,50898
Capsazepine,50898
Old Red Sandstone continent,50898
geometric standard deviation,50898
retroviridae,50898
KChIP2,50898
phosphoenolpyruvate carboxylase,50898
Hymenophyllum,50898
Adaptive Optics,50898
transplant experiment,50898
hazard insurance,50898
Scolytinae,50898
false vacuum,50898
consumer-resource interactions,50898
Hanita,50898
Neumark,50898
electromagnetically induced transparency,50898
Institutional Review Boards (IRBs),50898
program semantics,50898
Military Affairs,50898
Krautrock,50898
bionic ear,50898
Falling Man,50898
valence bond,50898
One direction,50898
hepatosplenic T-cell lymphoma,50898
partial fraction,50898
Economic growth,50898
Intensity Modulated Radiation Therapy,50898
autonomous vehicle,50898
Arthromyces,50898
Gaudium,50898
Australasia,50898
humanitarian logistics,50898
Steiner tree problem,50898
antimony oxide,50898
conceptual systems,50898
methyl orange,50898
aseptic meningitis,50898
Just War Theory,50898
Pelvetia,50898
Cardiobacterium hominis,50898
buy side,78431
Osteodystrophy,50898
basic arithmetic,50898
freedom force,50898
speckle interferometry,50898
Western philosophy,50898
Aptenodytes,50898
odontoid process,50898
Slaughterhouse,50898
NEO-PI,50898
Giorgio Agamben,50898
general anaesthetic,50898
pharmacologist,50898
Darfur,50898
glaucus,50898
high definition,50898
Pigovian tax,50898
quantale,50898
Ascomycetes,50898
Sofia Coppola,50898
reverse engineer,50898
Scoliosis,50898
Cath,50898
Westhoek,50898
plant communication,50898
Central Statistical Office,50898
Nancy Eiesland,50898
methyl chloroformate,50898
neo-evangelical,50898
megacity,50898
systems thinking,50898
ICESCR,50898
No class,50898
Forensic Radiology,50898
HGFR,50898
mathematical cognition,50898
Deep breathing,50898
Marie Curie Initial Training Network,50898
table view,50898
Antiretroviral drug,50898
BRAVA,50898
function approximation,50898
multicellularity,50898
manganese peroxidase,50898
dynamic stochastic general equilibrium,50898
nuclear weapons,50898
Andrew Walls,50898
social-insurance,50898
variety seeking,50898
corannulene,50898
family settings,50898
acute flaccid paralysis,50898
legal aid,50898
Willemstad,50898
premonition,50898
Farnesoid X Receptor,50898
historically informed,50898
Rolf Landauer,50898
glycyrrhizin,50898
Northwest Territories,50898
Consistency Theory,50898
South African Police Service,50898
Vibronic coupling,50898
rapporteur,50898
eudaimonia,50898
Europol,50898
immuno-suppressed,50898
counter-insurgency,50898
diethyl tartrate,50898
white coat hypertension,50898
Trans-New Guinea,50898
Canvey Island,50898
Spokane,50898
breast self-examination,50898
Slater-type orbital,50898
Porcellionides,50898
internet addiction,50898
Stop-loss,50898
immanent critique,50898
deterministic chaos,50898
Isaac Newton Telescope,50898
Macao,50898
Horton,50898
Pennebaker,50898
encephalomalacia,50898
investigative journalism,50898
anomalous X-ray pulsar,50898
cystoscope,50898
underdetermination,50898
NEAT,50898
holonomic system,50898
1973 oil crisis,50898
partial word,50898
hypogonadotrophic hypogonadism,50898
Globodera rostochiensis,50898
Modern Hebrew,50898
danger signal,50898
linear order,50898
Mihail Sebastian,50898
heat sink,50898
Knowledge Forum,50898
verbunkos,50898
Apache Point Observatory Galactic Evolution Experiment,50898
EUROSTAT,50898
market order,50898
Donbass,50898
Poisson bracket,50898
FM4,50898
kettlehole,50898
Menorrhagia,50898
leatherback turtles,50898
fetishist,50898
magnetic recording,50898
Norbury,50898
mechanical advantage,50898
Curculionidae,50898
infrared (IR) spectroscopy,50898
National Health Service,50898
Hindi,50898
Masebe,50898
palaeontology,50898
Coagulant,50898
case-based method,50898
Alton Locke,50898
statistical genetics,50898
Backstrom,50898
Hydrogen sulfide,50898
voucher privatization,50898
exsanguinating,50898
general river,50898
Guilford Publications,50898
Eastern Ukraine,50898
Richard Swinburne,50898
substantive representation,50898
manganese poisoning,50898
Lewontin,50898
Nain,50898
pileus,50898
diffusion map,50898
"ICDDR,B",50898
ill-posed problem,50898
Eustathios,50898
mobile telephone,50898
paleoanthropology,50898
circulating tumor cell,50898
global spectrum,50898
foot-and-mouth disease,50898
3C 58,50898
stochastics,50898
playwright,50898
Kanto,50898
tetrabenazine,50898
Hydrolase,50898
MMP14,50898
S60,50898
purine biosynthesis,50898
Amazon rain forest,50898
adductor longus muscle,50898
C19ORF2,50898
endopod,50898
vasa,50898
acid-fast bacteria,50898
PSR B1509-58,50898
Lumican,50898
PONCHO,50898
Spermacoce,50898
ITPR3,50898
alpha-adrenergic agonist,50898
reverse triiodothyronine,50898
B Lymphocytes,50898
Monck,50898
embryologic,50898
Calcium acetate/magnesium carbonate,50898
cAMP response element binding protein,50898
energy payback time,50898
incomplete lineage sorting,50898
Pectin,50898
Anaphylactic shock,50898
Phase 3 studies,50898
Transcranial Doppler,50898
Enterocytes,50898
Cl 9,50898
Ulva,50898
Phreatogammaridae,50898
Tsc1,50898
Lyase,50898
Mean motion,50898
regulatory DNA sequences,50898
ALDH1B1,50898
histone H4,50898
C208,50898
Melphidippidae,50898
animal trypanosomiasis,50898
nucleus ventralis,50898
type XVIII collagen,50898
Lanthanum carbonate,50898
SU6656,50898
CKO,50898
Dover Strait,50898
coprecipitates,50898
Southern Bight,50898
lidoflazine,50898
Teratogenic,50898
Sh3tc2,50898
Multinucleated,50898
open left,50898
Labetalol,50898
cytochrome-c oxidase deficiency,50898
Tully-Fisher relation,50898
cyclopropanes,50898
A67,50898
EZ.,50898
Wareham,50898
Leber congenital amaurosis,50898
complex torus,50898
Nina,50898
9/11 Commission Report,50898
Pragmatics,50898
Compound Library,50898
static equilibrium,50898
Jacoba van Velde,50898
Japanese studies,50898
left school,50898
sulfenamide,50898
Globodera pallida,50898
poly-L-lysine,50898
Rawlsian,50898
drotrecogin alfa,50898
side population,50898
optical communications,50898
Ok languages,50898
Rickettsia africae,50898
horizon lines,50898
core sampling,50898
conflict avoidance,50898
ethnonationalism,50898
"Bethesda, MD",50898
tilt table,50898
OpenSim,50898
chaplain,50898
beamsplitter,50898
tobacco tax,50898
heat exchanger,50898
Eikenella corrodens,50898
500 miles,50898
Anesthetic,50898
Grapheme,50898
critical historiography,50898
Great Limpopo Transfrontier Park,50898
Makino,50898
Albanian diaspora,50898
TUBA4A,50898
Transesterification,50898
transgender rights,50898
unthinkable,50898
Novikov,50898
Naxos,50898
multiple integral,50898
Bosnian,50898
group scheme,50898
titulus,50898
superior gluteal artery,50898
GC-content,50898
occupational pensions,50898
xi Persei,50898
classical music,50898
sonoluminescence,50898
general reporting,50898
Dara Birnbaum,50898
foetal haemoglobin,50898
NP complete,50898
DYX1C1,50898
Aceh Province,50898
pisiform,50898
Asian option,50898
charismatic movements,50898
process algebraic,50898
Caro,50898
green wave,50898
quantum chaos,50898
collisional excitation,50898
Police Academy,50898
Eurojust,50898
gutturals,50898
Thur,50898
Spatial dependence,50898
Ipsen,50898
madrepore,50898
original English-language,50898
nominalization,50898
Plymouth,50898
"San Diego, California",50898
Vycor glass,50898
NIH Image,50898
unfair prejudice,50898
soy lecithin,50898
Framework Decision,50898
Lyapunov equation,50898
human-based computation,50898
hydroxonium,50898
CEFR,50898
type I Collagen,50898
Hydraulic fracturing,50898
grey hole,50898
Cliona celata,50898
M.I,50898
environmental values,50898
strategic default,50898
prehistoric archaeology,50898
lactoferrin receptor,50898
Flemish Dutch,50898
The Bling Ring,50898
HSPA8,50898
Thom isomorphism,50898
log normal,50898
Gerard 't Hooft,50898
aspheric lens,50898
political ethics,50898
Chebyshev series,50898
Taizhong,50898
thatching,50898
vapor-phase epitaxy,50898
digital signal processors (DSPs),50898
Keck Telescope,50898
Geochronology,50898
ethical dilemma,50898
inductive types,50898
Foundherentism,50898
possession trance,50898
luminous blue variable (LBV),50898
Northeast (NE),50898
decoction,50898
central product,50898
Fes,50898
N-body problem,50898
computer theory,50898
XRCC5,50898
American Psychiatric Publishing,50898
muscular atrophy,50898
acoustic radiation force,50898
cyclotron frequency,50898
machine precision,50898
Lumen gentium,50898
Ibadan,50898
path connected,50898
Applied Linguistics,50898
cork,50898
fitness distribution,50898
peace studies,50898
Kraftwerk,50898
Platypodidae,50898
hurtful,50898
FTSE100,50898
Perseveration,50898
continued fraction,50898
deduction theorem,50898
Male infertility,50898
lysophospholipase,50898
Lotka-Volterra equations,50898
The Decision,50898
Information Retrieval,50898
fantasy proneness,50898
Africa-Eurasia,50898
totally lost,50898
Burnside,50898
Grime,50898
catalytic cracking,50898
Rahman,50898
photonic integrated circuit,50898
Wheaton College,50898
doxastic attitudes,50898
Lauter,50898
m65,50898
Motivational interviewing,50898
Vulcano Island,50898
placenta accreta,50898
Saharan Desert,50898
algorithmic complexity,50898
symmetry protected topological,50898
pterygia,50898
empiricism,50898
Cepheid variable,50898
uniformly bounded,50898
autonomously replicating sequence,50898
molecular adsorbents recirculation system,50898
scramblase,50898
dipeptidases,50898
pyruvate dehydrogenase deficiency,50898
CAM plant,50898
Sitagliptin,50898
Haida Gwaii,50898
Org 10172,50898
Janos Kadar,50898
Molise,50898
KDM2B,50898
alglucosidase alfa,50898
multimethods,50898
kinetic diameter,50898
Astrakhan,50898
Q-factor,50898
Takhtajan,50898
polygraph,50898
Psychoeducation,50898
patent law,50898
Chikungunya,50898
methylene bridge,50898
massively parallel architectures,50898
nanofilter,50898
TOR,50898
queueing delay,50898
dealignment,50898
aza-Cope rearrangement,50898
sugar daddies,50898
tube dependency,50898
uniformization theorem,50898
The Franklin Institute,50898
paraboloid,50898
Accelerator mass spectrometry,50898
Elie Cartan,50898
Rutger Jan Schimmelpenninck,50898
Oostvaardersplassen,50898
optimal inventory,50898
Cultural reproduction,50898
P-matrices,50898
Glanville fritillary,50898
The lesson,50898
Rijnmond,50898
Nightingale Island,50898
Negative frequency,50898
sky blue,50898
Kaluza-Klein theory,50898
Stokes vector,50898
Postojna,50898
soundscape,50898
Carstensen,50898
Basommatophora,50898
triquetral bone,50898
platelet transfusion refractoriness,50898
census tract,50898
anti-colonialism,50898
examination system,50898
Rota,50898
Vector graphics,50898
marginal probability,50898
microchemistry,50898
hyperelliptic curve,50898
Aortic arch,50898
biomagnify,50898
credit cycle,50898
dense time,50898
Julich,50898
Pennington,50898
bacteriorhodopsins,50898
conflict thesis,50898
post-marketing surveillance,50898
K42,50898
ionic mobility,50898
Galibi,50898
chemical fractionation,50898
CITES Appendix II,50898
Kingella,50898
Berlioz,50898
ecophysiology,50898
ontological framework,50898
concept search,50898
Durkheim,50898
parabolic subalgebra,50898
CHRM3,50898
m20,50898
multiple pterygium syndrome,50898
antisigma,50898
spoken word recognition,50898
Partition problem,50898
Chechen,50898
bipolar I disorder,50898
intertidal zone,50898
crystal analysis,50898
Aliaksandr Lukashenka,50898
modified Newtonian dynamics (MOND),50898
smooth structure,50898
Mendelian genetics,50898
family values,50898
thermal expansivity,50898
Fucaceae,50898
Boron,50898
Dialectica interpretation,50898
Forest floor,50898
Lie algebroid,50898
European Southern Observatory (ESO),50898
ethylene glycols,50898
OVID,50898
Asplenium,50898
folk psychology,50898
nail polish,50898
lien,50898
hiatus hernia,50898
homodyne detection,50898
Autobahn,50898
Quality management,50898
locally path connected,50898
BaCl2,50898
dissolved organic material,50898
typhoid vaccination,50898
dead trees,50898
Sanjiang Plain,50898
left radical,50898
Egocentrism,50898
Orphanet,50898
altruistic tendencies,50898
3-nitrobenzanthrone,50898
Fortran,50898
ecgonine,50898
Troelstra,50898
West Sussex County Council,50898
photomicrography,50898
WR 135,50898
S. eubayanus,50898
linguistic parameters,50898
anti-Semitism,50898
QPM,50898
baroclinic instability,50898
A15 phase,50898
comparison-based,50898
Christian-democratic,50898
reference implementation,50898
flammability limit,50898
Madre de Dios Island,50898
dynamic speckle,50898
Clionaidae,50898
N band,50898
anti-trust,50898
Enophthalmos,50898
sleep debt,50898
Sulzbach,50898
domestic purposes,50898
3D television,50898
fully abstract,50898
"receptors, complement",50898
University Health Network,50898
curvilinear coordinates,50898
KWOG,50898
Disneyland,50898
EKG,50898
tarsus,50898
Bearded Vulture,50898
time transfer,50898
perspectivity,50898
Motion parallax,50898
hyperspectral image,50898
2004 tsunami,50898
Aegean islands,50898
Northern Cyprus,50898
wetted perimeter,50898
Jackendoff,50898
front vowel,50898
green P.,50898
SLA2,50898
Sumapaz,50898
Immunosuppressive drug,50898
Eurotiomycetes,50898
internal carotid arteries,50898
Funafuti,50898
Wehrmacht,50898
decoy receptors,50898
tsetse flies,50898
nitrogen oxide,50898
DHM,50898
stereophotogrammetrical,50898
Namche Bazaar,50898
Weyl-Kac character formula,50898
photoallergy,50898
KWES,50898
Dissolved oxygen,50898
macromolecular assemblies,50898
Fable,50898
mammillae,50898
Cyclades,50898
Asterisque,50898
network motif,50898
carefree,50898
vaccine adjuvant,50898
BEM,50898
smoothed particle hydrodynamics,50898
HemoCue,50898
agrarian law,50898
Pomoravlje,50898
Weight-bearing,50898
Capreomycin,50898
Simon Task,50898
Phaeophyceae,50898
interbasin transfer,50898
PIT-tagged,50898
NEXUS,50898
economic nationalism,50898
microdrive,50898
Melitaea cinxia,50898
Azole,50898
belief propagation,50898
Polyacrylamide gel electrophoresis,50898
false dichotomy,50898
Holland-America Line,50898
peak calling,50898
PADUA,50898
structuralist,50898
complex fluids,50898
flux tower,50898
Neo-Tethys ocean,50898
Cenozoic Era,50898
space frames,50898
polyhydroxybutyrate,50898
bisphenol S,50898
tight-junction,50898
Tyrophagus putrescentiae,50898
forbidden gap,50898
LabelMe,50898
Cultural analysis,50898
rein,50898
deep hypothermic circulatory arrest,50898
transfer agent,50898
industrial laboratory,50898
SigD,50898
epistemic modality,50898
subgame-perfect equilibrium,50898
false vacua,50898
primordial germ cells,50898
q-series,50898
gall stone,50898
stream function,50898
local natives,50898
sphenoid bone,50898
Lipschitz constant,50898
natural design,50898
mesocortical,50898
ideal speech situation,50898
erga omnes,50898
Homer,50898
Lithuanians,50898
directional drilling,50898
Nerve injury,50898
exsanguination,50898
sexual discrimination,50898
cryopreserving,50898
Traditional beliefs,50898
Songnen Plain,50898
nanocrystalline silicon,50898
sarcoglycanopathies,50898
depletion zone,50898
Sussex County,50898
Belarusian,50898
irredentist,50898
pneumocytes,50898
multi-spectral phase coherence,50898
coacervate,50898
BTN,50898
Autoimmune lymphoproliferative syndrome,50898
fingerprint identification,50898
business ethics,50898
non-conformist,50898
GATT,50898
Neo-evangelicalism,50898
Compactness theorem,50898
grammatical tense,50898
David Donoho,50898
proctology,50898
antisemitic,50898
active matter,50898
stoked,50898
phronetic,50898
commodity contracts,50898
Human genetics,50898
Herman ring,50898
epenthesis,50898
Heathcote,50898
mainframe,50898
Online algorithm,50898
descriptive set theory,50898
NCI-60,50898
Bootstrap methods,50898
Do-it-Yourself,50898
rhesus D,50898
put-call parity,50898
Faust,50898
e-marketing,50898
hyperelastic material,50898
rounders,50898
first-person perspective,50898
DUISBURG,50898
estradiol valerate,50898
Trichogramma,50898
CRF1 receptor,50898
Romanian-Jewish,50898
OBO Foundry,50898
UK Schmidt Telescope,50898
Liouville equation,50898
acoustic rhinometry,50898
generalized hypergeometric function,50898
Cornwall County Council,50898
consumption function,50898
SDO,50898
Cabibbo-Kobayashi-Maskawa matrix,50898
RHAMM,50898
World Food Program,50898
cyanotic heart disease,50898
Germania,50898
tracheo-oesophageal fistula,50898
linear actuator,50898
Lev Gumilev,50898
cooling flow,50898
Muscle relaxants,50898
Northern Portuguese,50898
selective breeding,50898
DNQX,50898
Desiccation,50898
Changbai Mountains,50898
finite model,50898
Melilotus,50898
Raynaud phenomenon,50898
VC-dimension,50898
collision geometry,50898
Picard group,50898
scaphoid bone,50898
isotropic radiation,50898
g-force,50898
alternating-current,50898
Hinchey classification,50898
pelagic zone,50898
Special Administrative Region,50898
CEP290,50898
carbonyl fluoride,50898
aqua regia,50898
cultural mediation,50898
systems engineering,50898
step-off,50898
Faroe Islands,50898
Arthur Prior,50898
protein database,50898
Luminol,50898
Cracow,50898
Arctic Norway,50898
Systems Engineering,50898
The journalist,50898
crossword,50898
Methanobacterium,50898
haemophagocytic lymphohistiocytosis,50898
spatial politics,50898
SNAR,50898
Hardcore gamers,50898
Weierstrass,50898
Purkinje layer,50898
microphytes,50898
long term memory,50898
Everest,50898
divertor,50898
edn,50898
generalist genes hypothesis,50898
American Urological Association,50898
Binh Thuan Province,50898
ultramafic intrusions,50898
national accounts,50898
olfactory epithelium,50898
classical liberalism,50898
GEUS,50898
Tom Wright,50898
HACEK endocarditis,50898
Thoracic surgery,50898
fusion point,50898
Indian mustard,50898
Predictive power,50898
model t,50898
Fossil Bluff,50898
cell Ca2+,50898
computational musicology,50898
lush,50898
Bartholomew,50898
AB magnitude,50898
Construction Morphology,50898
Jaffna,50898
coarse woody debris,50898
Ticino,50898
sadistic personality disorder,50898
cyclin E1,50898
data replication,50898
Hyaline,50898
DCDC2,50898
cinnamyl alcohol,50898
soft robotics,50898
Interpolation,50898
Bekaert,50898
Energen,50898
SigE,50898
The main point,50898
Upper critical field,50898
hexazine,50898
Emiliano,50898
radiocarbon chronology,50898
pre-main-sequence star,50898
constraint condition,50898
Lebensreform,50898
Zariski closure,50898
COL1A2,50898
Lofoten Islands,50898
immaterial labor,50898
mesoscopic systems,50898
Evidence Based Medicine,50898
natural units,50898
RIG-I-like receptor,50898
dogmatic constitution,50898
Alcon,50898
ant colony optimization,50898
anorgasmia,50898
Upper Pleistocene,50898
Brassica juncea,50898
Florsheim,50898
Fort Worth,50898
EDEN,50898
Body shape,50898
matrifocal,50898
spiral mode,50898
Bus Rapid Transit (BRT),50898
Wakawaka,50898
array analyses,50898
spiral wave,50898
strike zones,50898
mushing,50898
Resende,50898
corynanthine,50898
Erik Verlinde,50898
Heteroxenia,50898
Hitler,50898
Sea-level rise,50898
WCMC,50898
hypothalamic hormones,50898
half-period,50898
ferrierite,50898
xerophilous,50898
QuEChERS,50898
LY354740,50898
difference gel electrophoresis,50898
semantic dementia (SD),50898
casein kinase II,50898
hamlet,50898
real enemies,50898
xiphias,50898
Psychophysiology,50898
Conversation analysis,50898
Plomin,50898
mainstream science,50898
Web design,50898
Ethiopian highlands,50898
Romagnolo,50898
pyrolysis oil,50898
Insulin-degrading enzyme,50898
Apidae,50898
Lisa,50898
Russian language,50898
type 1 DM,50898
pseudokinase,50898
unfalsifiable,50898
decyl glucoside,50898
Trojan horse,50898
Western Cwm,50898
Carlingford,50898
Watchmen,50898
rearrest,50898
Papendrecht,50898
Hemoglobin A1c,50898
intermediate frequency,50898
dorsal roots,50898
glaucoma medication,50898
brewing,50898
topological rigidity,50898
dictyosome,50898
ostiole,50898
Dial-a-Ride,50898
ichnogenus,50898
Dei Verbum,50898
Princeton University Press,50898
rhinomanometry,50898
artificial respiration,50898
X-ray Transient,50898
hyperkinetic disorder,50898
public culture,50898
Foshan,50898
connexin 26,50898
keratometer,50898
selection algorithm,50898
papule,50898
cingulotomy,50898
Incarnation,50898
Pteridophytes,50898
cosmological perturbation theory,50898
floriculture,50898
Transesophageal echocardiography,50898
WWWW,50898
Dickey,50898
Musina,50898
radiation trapping,50898
Masamune,50898
Olfaction,50898
Perfect Information,50898
borazine,50898
Sabouraud dextrose agar,50898
Basic Formal Ontology,50898
RNase T,50898
Mrps5,50898
agriculture policy,50898
acarid,50898
LP relaxation,50898
closed-class,50898
Crossfit,50898
Herfindahl Index,50898
long wavelength limit,50898
Centre-right,50898
Lemna minor,50898
interstitial pulmonary fibrosis,50898
Dectaflur,50898
post growth,50898
Vicariance,50898
medical optical imaging,50898
The SIMS,50898
gelijkheid,50898
inflation-adjusted,50898
The parasites,50898
ITER,50898
palladium hydride,50898
Lobith,50898
Co-Co,50898
cosmic background radiation,50898
rounding error,50898
relevance logic,50898
2010 census,50898
idyll,50898
Yeltsin,50898
Ethylene Glycol Dimethacrylate,50898
panchayat,50898
CPF1,50898
boroxine,50898
P27KIP1,50898
Sigma factor,50898
Kovas,50898
foundherentism,50898
Radiation damage,50898
commonsense knowledge,50898
pre-clinical development,50898
South Col,50898
length space,50898
crossfit,50898
data integrity,50898
congruence relation,50898
hypercharge,50898
cognitive semantics,50898
umklapp scattering,50898
bioanalysis,50898
Escobar,50898
KWOS,50898
juncea,50898
death receptor 5,50898
HPBW,50898
R435,50898
Princeton,50898
lophotrochozoan,50898
state-trait anxiety inventory,50898
LimeSurvey,50898
depleted uranium,50898
humeri,50898
narcissistic parents,50898
Conflict Tactics Scale,50898
intermodulation,50898
scaphoid tubercle,50898
anterior talofibular ligament,50898
sequence assembly,50898
Spanish Constitutional Court,50898
minimal pair,50898
resistance thermometer,50898
Cupressus,50898
anti-racist,50898
Adult ADHD Self-Report Scale,50898
polarography,50898
cellobiose,50898
social simulation,50898
Chamaeleon,50898
mononeuritis multiplex,50898
apparent magnitude,50898
Borel transform,50898
Brainstorm,50898
sentimentalism,50898
Gelfand pair,50898
nucleophilic addition,50898
memory pool,50898
South West Trains,50898
intermittent stream,50898
membrane emulsification,50898
Cotinine,50898
styrene monomer,50898
litotes,50898
Magic mushrooms,50898
Aphididae,50898
paleomagnetism,50898
4-methylmethcathinone,50898
Human Development Index (HDI),50898
LRPPRC,50898
collisional fragments,50898
LUND,50898
Wetzlar,50898
two-vector,50898
Xenopus frogs,50898
Danube River,50898
schema theory,50898
Oceanic language,50898
hectorite,50898
epistemologies,50898
hydrostatic column,50898
Cardiac Rehabilitation,50898
calcaneofibular ligament,50898
Coal Nunatak,50898
ferrocenium,50898
Daucus carota,50898
double displacement,50898
Brain Tumors,50898
exact completion,50898
conservative extension,50898
CPN Tools,50898
DpX,50898
bulletin board,50898
MEOX2,50898
millisievert,50898
protostome,50898
TNNI3K,50898
image filter,50898
Didanosine,50898
trama,50898
conformal geometry,50898
Extremadura,50898
Lake Maggiore,50898
dopamine beta-hydroxylase,50898
PQBP1,50898
Conference Proceedings Citation Index,50898
motion blur,50898
pail,50898
Sebastian,50898
George Hunsinger,50898
Viral evolution,50898
coda,50898
A 61,50898
Fedotozine,50898
EUVE,50898
band-bending,50898
Putin,50898
Intravasation,50898
type I Interferon,50898
anti-racism,50898
inferior temporal cortex,50898
phylogenetic profiling,50898
functional renormalization group,50898
TGC,50898
Fieldtrip,50898
Old High German,50898
eschar,50898
Synthetic biology,50898
Wolffia arrhiza,50898
mycangia,50898
proj,50898
shadow education,50898
The Raven,50898
concertacion,50898
Do-it-yourself,50898
XingLong,50898
fet,50898
European Portuguese,50898
VZ,50898
MYL2,50898
Reference Sequence,50898
Isochrysis galbana,50898
Desulfitobacterium hafniense,50898
mass-to-light,50898
hexanol,50898
carbon trading,50898
Ruhnama,50898
edible mushroom,50898
Regime shift,50898
Europeana,50898
Software Configuration Management,50898
Forensic nursing,50898
Homologous recombination,50898
European Arrest Warrant,50898
Phobic,50898
Assertive Community Treatment,50898
surviving family,50898
Severe congenital neutropenia,50898
American options,50898
alarmins,50898
articular tubercle,50898
Conventional Weapons,50898
Bibliographic databases,50898
Dashkasan,50898
l-asparaginase,50898
analogue modelling,50898
Bathyergus suillus,50898
geothermal energy.,50898
Natural transformation,50898
Accident Analysis & Prevention,50898
Cyclic peptides,50898
botnet,50898
Psittacosis,50898
McDonald Criteria,50898
Nieman,50898
passenger market,50898
Anselm Kiefer,50898
auditory memory,50898
Niacin,50898
Deurne,50898
Recommended Dietary Allowance,50898
Parietal lobe,50898
Cyanovirin-N,50898
a-mannosidase,50898
Mycobacterium phlei,50898
Gestational diabetes mellitus,50898
CIG,50898
unintended consequence,50898
Denosumab,50898
FUF,50898
Main Ethiopian Rift,50898
job-shop problem,50898
back-fire,50898
mesenchymal stem cells (MSC),50898
Thalassaemia,50898
supercontinuum,50898
polypill,50898
paradata,50898
venous leg ulcers,50898
Collective bargaining,50898
power play,50898
human-powered vehicle,50898
graded representation,79833
Young Christians,50898
degrowth,50898
Psychodynamic psychotherapy,50898
yttria,50898
Omo,50898
Volume rendering,50898
Pigouvian taxes,50898
Persoon,50898
Immune checkpoint,50898
GABAA receptors,50898
naproxen sodium,50898
EuroWordNet,50898
Brain tumors,50898
Algorithmic trading,50898
Venomous snakes,50898
Hueter-Volkmann law,50898
saturable absorption,50898
Corrado Bohm,50898
Speech Transmission Index,50898
reverse logistics,50898
Arbia,50898
financial news,50898
Laser-induced incandescence,50898
The stereo,50898
Climate variability,50898
Anti-CD20,50898
car taxation,50898
ischial tuberosities,50898
Intermodal transport,50898
Avastin,50898
Faultline,50898
Antigen presentation,50898
molecular systems biology,50898
Specific leaf area,50898
Tobacco smoking,50898
visibility graph,50898
DNA damage checkpoints,50898
flux-balance analysis,50898
Changeux,50898
Calmodulin,50898
NR5A1,50898
nasopharyngeal cancer,50898
Foveal,50898
Simple Knowledge Organization System,50898
F-space,50898
Software engineering,50898
SACP,50898
semiarid steppe,50898
street-level bureaucracy,79882
Linked data,50898
mousse,50898
Christmas cookies,50898
modal analysis,50898
Actinomycetes,50898
The disconnection,50898
Causal attributions,50898
Nateglinide,50898
Revenue Management,50898
Ameloblastoma,50898
Speed skating,50898
liturgy,50898
phyllosphere,50898
Stingray devices,50898
reaction sets,50898
shiftwork,50898
particle detector,50898
trans fat,50898
Core self-evaluations,50898
Chondroitin sulfate,50898
Organizational design,50898
Gestational hypertension,50898
Fatty liver,50898
Prion diseases,50898
Paroxysmal dyskinesia,50898
renal artery stenosis,50898
Monroe,50898
texture gradient,79910
short-sale,50898
Campos Basin,50898
ICT4D,50898
commercial fishing,50898
beamer,50898
Hypertrophic Cardiomyopathy,50898
American imperialism,50898
Makuyuni,50898
Interactive storytelling,50898
contextual effects,50898
Medical education,50898
system optimum,79922
garage parking,50898
Tobacco products,50898
servant leadership,50898
conceptual metaphor theory,50898
obstetric ultrasound,50898
Traumatic brain injury,50898
general order,50898
Fragment-based lead discovery,50898
relational aggression,50898
Yorkshire terrier,50898
social age,50898
Podiatric,50898
presynaptic active zone,50898
MECHELEN,50898
Dutch revolutionaries,50898
Breast-conserving surgery,50898
Anaphylactic,50898
Pressure wave,50898
duopolies,50898
OGX,50898
auditory event,50898
Cervical dystonia,50898
outer hair cell,50898
Hierarchical routing,50898
Elizabeth Harman,79947
Socio-technical systems,50898
lunar exploration,50898
resource nationalism,50898
EXI,50898
TNFSF4,50898
zygomatic fractures,50898
Plastin,50898
Secondary hyperparathyroidism,50898
gallbladder disease,50898
IIMS,50898
sexual response cycle,50898
artiodactyl,50898
B-meson,50898
Dermatoglyphics,50898
Myosin-binding protein C,50898
PNV,50898
The scholars,50898
The Talk,50898
Vancouver Island,50898
Miura,50898
static friction,50898
Guatemala City,50898
retributive punishment,79970
dyotropic,50898
Lymphogranuloma venereum,50898
Thioguanine,50898
chlorinated paraffins,50898
Nephronophthisis,50898
Growth Factor Receptor Inhibitor,50898
risk-free rate,79977
Langen,50898
Service-oriented architecture,50898
Gene regulatory networks,50898
Homelessness,50898
fellatio,50898
Whitwell,50898
MBN,50898
mimotope,50898
lantibiotic,50898
Mycobacterium fortuitum,50898
Human resource development,50898
voice therapy,50898
Channelrhodopsin,50898
Intralocus sexual conflict,50898
Bacteriochlorophyll,50898
software architect,50898
Ergonomics,50898
Hematopoietic stem cells (HSCs),50898
hypothalamic-pituitary-gonadal axis,50898
DPSIR,50898
Multiple endocrine neoplasia type 1,50898
Workplace conflict,50898
Emotional lability,50898
animal viruses,50898
chelating agents,50898
Zwol,50898
public procurements,80004
Toarcian,50898
innovation adoption process,50898
imidazolidine,50898
Aerobic exercise,50898
injection moulding,50898
personal injury,50898
Tasquinimod,50898
Millennium Drought,50898
WIND,50898
Homo Oeconomicus,80014
Skaland,50898
odontogenic epithelium,50898
Adoptive cell transfer,50898
Peer-to-peer,50898
Drought tolerance,50898
vertical root fracture,50898
intrinsic factor,50898
behavior settings,50898
relational structure,80023
Perylene,50898
pectus carinatum,50898
Oral cancer,50898
porocarcinoma,50898
Chemogenomics,50898
Cervical intraepithelial neoplasia,50898
synorogenic,50898
stress intensity factor,50898
HEAT,50898
early winter,50898
Secchi depth,50898
The Tower,50898
Jean Regis,50898
diel migration,50898
MTG,50898
purchase tax,50898
WBXR,50898
meridional overturning circulation,50898
Corinthians,50898
late Paleocene,50898
Cowpea,50898
PRRT2,50898
NetBeans,50898
Fluoroscopic,50898
autochaperone,50898
Gammertingen,50898
ventral root,50898
Larynx,50898
tongue cancer,50898
stochastic frontier analysis,50898
Gilenya,50898
FGF-1,50898
crystal accumulation,50898
Birefringence,50898
phosphoranes,50898
CKAP5,50898
Anwar,50898
complement factor B,50898
Atg16L1,50898
Liege,50898
The audience,50898
Segre River,50898
Lokbatan,50898
fictitious force,50898
GeoNames,50898
site-saturation,50898
MDK,50898
stripline,50898
Oger,50898
HMV,50898
Tl2,50898
A26,50898
Astro,50898
mGluR2,50898
pantomime,50898
female sex hormone,50898
PCLO,50898
pyrimidine analogue,50898
sea-ice extent,50898
sodium pyrophosphate,50898
Sicilian Channel,50898
FokI,50898
clear cell renal cell carcinoma,50898
Northern Brazil,50898
educational counselling,50898
Complete Genomics,50898
manova,50898
Forecast skill,50898
Dolman,50898
BBS10,50898
Neo-Calvinists,50898
RBM39,50898
relative response factor,50898
NPHP4,50898
IRS1,50898
Renormalization,50898
Darwinian fitness,50898
insulae,50898
apse,50898
neuroinvasive disease,50898
carbon paste electrode,50898
Grounded Theory method,50898
siltuximab,50898
histogram matching,50898
EoS,50898
Mental development,50898
graded potential,50898
tuberomammillary nucleus,50898
NiV,50898
Bebertal,50898
ZEN,50898
intravenous cannulation,50898
micellar cubic,50898
lumo,50898
hemidiaphragm,50898
Papanicolaou test,50898
Naproxen sodium,50898
protocol stack,50898
angiomyolipomas,50898
Fingerprint,50898
CXCL7,50898
GLIB,50898
World Wide Web Consortium (W3C),50898
lithic,50898
intestinal parasite,50898
darker circles,50898
Paco,50898
Dome C,50898
LYS,50898
lobeline,50898
Visudyne,50898
early feeding,50898
Great Depression,50898
MTBI,50898
hypertonicity,50898
Combustion Chemistry,50898
P2RY5,50898
general classification,50898
probucol,50898
DZNeP,50898
choline transporter,50898
The slippery slope,50898
breakthrough pain,50898
Methenamine,50898
Leukemias,50898
Skinner box,50898
RYBP,50898
Fluorosis,50898
Awkward,50898
anserine,50898
intrauterine system,50898
coagulase-negative Staphylococcus,50898
Proteus spp.,50898
Phytophthora,50898
GRB10,50898
Power spectrum,50898
IIPs,50898
1AR,50898
Trifluoroacetic acid,50898
SMART-1,50898
uncus,50898
esophageal stenosis,50898
WORC,50898
bazedoxifene,50898
GR5,50898
MMTS,50898
MMACHC,50898
allochthon,50898
phytoextraction,50898
defrosted,50898
histamine H1,50898
MATE,50898
anacusis,50898
droopy,50898
Mid-Brunhes event,50898
The upwelling,50898
fungivore,50898
radiocontrast,50898
Enzyme kinetics,50898
measure B,50898
ICCA,50898
reproductive disorder,50898
ethanol fermentation,50898
Barrow,50898
HLA-I,50898
pharma,50898
Kura,50898
virtual slide,50898
Subcapsular sinus,50898
workplace conflict,50898
Agulhas Current,50898
183A,50898
cryptographic key,50898
SEEG,50898
Linked Open Data,50898
azure,50898
senior high school,50898
nature-nurture debate,50898
vildagliptin,50898
African Plate,50898
Usp18,50898
ZFT,50898
computer-assisted instruction,50898
CFAB,50898
rich client platform,50898
SHSY5Y,50898
forecast skill,50898
single-case experimental design,50898
strychnine,50898
NOX5,50898
experimental unit,50898
PLS3,50898
tasquinimod,50898
key binding,50898
K-file,50898
sci,50898
PQ-16,50898
top-hat beam,50898
efference copies,50898
Camellia,50898
Colistin,50898
shaker,50898
AABC,50898
Ile-de-France,50898
Her2/Neu,50898
proxemics,50898
shiitake,50898
Kristiansand,50898
cross-dressing,50898
Brevibacillus,50898
passenger side,50898
Laxative,50898
community field,50898
Masafi,50898
nucleotomy,50898
DNAJA1,50898
Hoist,50898
neutral theory,50898
KREEP,50898
multileaf collimator,50898
LTX,50898
Salix pulchra,50898
Move It,50898
DWs,50898
Rayleigh distillation,50898
HRK,50898
PPP1R10,50898
acute lymphoid leukemia,50898
Swedish Interactive Thresholding Algorithm,50898
University College London,50898
matrix gla protein,50898
palmitoyl CoA,50898
FODMAP,50898
Kennemer,50898
galley,50898
mood stabilizer,50898
AMIE,50898
n.c.a.,50898
Musandam,50898
Omega-3 fatty acid,50898
Biostratigraphy,50898
South-east France,50898
long term potentiation,50898
SLC17A3,50898
Caucasian race,50898
FcgR2a,50898
genital reconstructive surgery,50898
beclin 1,50898
ugali,50898
Carulli,50898
TCDB,50898
DGKQ,50898
Berry pseudorotation,50898
CHEK1,50898
internal cerebral veins,50898
USP7,50898
bulk tank,50898
facetectomy,50898
structure-based drug design,50898
lead dioxide,50898
Muhajir,50898
lava dammed,50898
chordates,50898
etofenamate,50898
piconewton,50898
papulopustular,50898
Fruska Gora,50898
Quantum yield,50898
fluorenol,50898
inter-tropical convergence zone,50898
ReaxFF,50898
Influenza virus,50898
non-conservative mutations,50898
chemical decomposition,50898
ATP13A3,50898
Degos disease,50898
NLEs,50898
Turkmens,50898
Spot analysis,50898
W3C Recommendation,50898
myofascial pain,50898
Stenosing tenosynovitis,50898
on-the-fly encryption,50898
HLOD,50898
CDC2,50898
FKBP10,50898
RNU2,50898
Lilliput,50898
Aurangabad,50898
type approval,50898
ABCC9,50898
lateral femoral cutaneous nerve,50898
surgical infections,50898
nicotinate,50898
nephronophthisis,50898
point symmetry group,50898
Coagulopathy,50898
IGFBP6,50898
Temazepam,50898
Dibba,50898
inorganic polymer,50898
Noachian,50898
Krabbe disease,50898
"2,3-sigmatropic rearrangement",50898
eIF4E,50898
Anak Krakatau,50898
Elbe River,50898
R/T,50898
RION,50898
Kcnj10,50898
K(ATP),50898
sarcosine,50898
reach records,50898
TPX2,50898
V30,50898
CEACAM5,50898
CNDP1,50898
Fluorescein isothiocyanate,50898
venous plexuses,50898
sternoclavicular joints,50898
DNAJB1,50898
manuka honey,50898
Bibliotherapy,50898
confessionalization,50898
FABP7,50898
greek key,50898
glutathione metabolism,50898
plakoglobin,50898
methyl lithium,50898
trigonometry,50898
NVME,50898
MELD score,50898
ms windows,50898
infiltration analgesia,50898
Capan,50898
Neutral zone,50898
CUBN,50898
teres minor muscle,50898
iSelect,50898
mid-channel,50898
Arctagrostis,50898
thoracostomy,50898
biphobia,50898
Dictyoglomi,50898
non-motile cilia,50898
b-thalassemia,50898
Lisch nodules,50898
Calcein,50898
hexachlorocyclohexane,50898
GOES,50898
clot retraction,50898
horizontal genetic transfer,50898
TatB,50898
SLIT2,50898
DiaSorin,50898
FcgR3a,50898
pulse group,50898
attoseconds,50898
anterior segment dysgenesis,50898
direct-developing,50898
hypocholesterolemic,50898
CPAC,50898
Fawcett,50898
cetrimonium bromide,50898
Turkmenbashy,50898
Slidex,50898
fibrocyte,50898
Segre,50898
myoelectric,50898
dependent area,50898
A. lentulus,50898
Beckman Coulter,50898
Eastern Asia,50898
Fontana,50898
south-east France,50898
Oghuz Khan,50898
partial differentiation,50898
nphp4,50898
MJ/mol,50898
octocrylene,50898
ECCM,50898
Illite,50898
SDAI,50898
IL3,50898
oceanic arc,50898
spondyloarthropathy,50898
PYTHON,50898
fragment-based drug discovery,50898
Dutch Reformation,50898
prestriate cortex (V2),50898
Selenomonas,50898
CADASIL,50898
Total Carbon Column Observing Network,50898
Xray crystallography,50898
spectrum bias,50898
common iliac arteries,50898
Autism Spectrum Quotient,50898
WRSD,50898
EPHA7,50898
luminometer,50898
Multiplet,50898
ISTI,50898
The beat,50898
Anti-Atlas,50898
Mazzin,50898
non-mevalonate,50898
GTO,50898
The gonads,50898
academic mobility,50898
biocompatible materials,50898
CO2 retention,50898
LRP2,50898
Circuit training,50898
hantavirus,50898
North Slope,50898
DMXL2,50898
HAUSP,50898
non-inertial reference frame,50898
X atom,50898
cingular,50898
Refractory anemia,50898
BTs,50898
JHR.,50898
Chao Praya,50898
adhesive tape,50898
Gene-environment correlation,50898
gender education,50898
Fragilariales,50898
The Sequence,50898
decitabine,50898
plexin,50898
film technique,50898
SP7,50898
"anemia, refractory",50898
Nordrhein-Westfalen,50898
hydrothorax,50898
Baccinello,50898
NaOAc,50898
myeloablation,50898
OTP,50898
Habsburg Netherlands,50898
actinomycetes,50898
landlocked,50898
camber,50898
chromatin remodelers,50898
Gosau Group,50898
Vildagliptin,50898
lucinid,50898
anthrax,50898
MINX,50898
presenilin,50898
Northeast region,50898
optical parametric amplification,50898
Elapidae,50898
dispersion medium,50898
wave mechanics,50898
terminal restriction fragment length polymorphism,50898
M70,50898
Wiley Periodicals Inc,50898
Aristarchus,50898
CRION,50898
C. glutamicum,50898
PDE10A,50898
APOA1BP,50898
OSPAR convention,50898
Mexican Americans,50898
lipidome,50898
Hidra,50898
fixed prosthodontics,50898
methyl triflate,50898
Siusi,50898
lander,50898
organic composition,50898
EYA2,50898
parathion,50898
HMRI,50898
adakitic,50898
genetically homogenous population,50898
material safety data sheets,50898
PLEKHA1,50898
Viedma,50898
Frizzled receptors,50898
retinotopy,50898
Unicel,50898
surinabant,50898
RAD51C,50898
SF4,50898
rasburicase,50898
molecular engineering,50898
Skewed X-inactivation,50898
Castricum,50898
inferior pharyngeal constrictor,50898
SRES A2,50898
Future Oncology,50898
River terrace,50898
Theophilus,50898
CXCR4 antagonist,50898
Haemophilus influenza,50898
Sardinians,50898
secondary gain,50898
Dynamic loading,50898
molecular repair,50898
CASP1,50898
Integra,50898
Metridiochoerus compactus,50898
HOCO,50898
FANCO,50898
Clustering coefficient,50898
tetrasomy,50898
Waf,50898
Dutch CUP,50898
spinal motion segment,50898
JHR,50898
metric entropy,50898
FeV,50898
Epworth sleepiness scale,50898
Werfen Formation,50898
SLC3A2,50898
orphan drug,50898
FUT9,50898
mpa,50898
Peptococcus,50898
Newar,50898
Nandi,50898
NCR2,50898
business process management (BPM),50898
catalpol,50898
microphotography,50898
hydrotherapy,50898
pneumonic plague,50898
Veluwe,50898
DFDs,50898
Morganella morganii,50898
tussock grassland,50898
UNCCD,50898
Diphtheria,50898
P 5,50898
Emotional abuse,50898
hypoxic ischemic encephalopathy,50898
tracking error,50898
FGF14,50898
FGF7,50898
GPR18,50898
fructose malabsorption,50898
Scatterometer,50898
DDR2,50898
Sortase A,50898
microdoses,50898
ataxia telangiectasia,50898
RADES,50898
HRH1,50898
VAL,50898
urea transporter,50898
metanephrines,50898
Nociceptive,50898
Norite,50898
traumatic amputation,50898
START domain,50898
NFIA,50898
interscapular brown adipose tissue,50898
Microinjection,50898
stilbenoid,50898
HIF1AN,50898
tandem reaction,50898
wnt signaling,50898
Hemoptysis,50898
reducing weight,50898
NRW,50898
Pink,50898
aucubin,50898
Eurygnathohippus,50898
HSP90AA1,50898
tailwater,50898
HOLOGIC,50898
Nermal,50898
UCON,50898
biofluorescence,50898
CPS1,50898
WBCT,50898
Bt toxin,50898
sleeping positions,50898
phosphoglucose isomerase,50898
lesser sac,50898
zygomatic bone,50898
Sorghum,50898
functional load,50898
aquo ions,50898
GPR119,50898
Tariquidar,50898
SLC7A6,50898
Ikzf4,50898
Maspin,50898
central branch,50898
Trabectedin,50898
Mafia,50898
epineurium,50898
vagus nerves,50898
C-Peptide,50898
laser-guided,50898
memory improvement,50898
DBPedia,50898
bedding plane,50898
false impression,50898
V50,50898
Pandemrix,50898
TX-2,50898
Fowler,50898
collection II,50898
HLA-DPA1,50898
KLK12,50898
Toshiba,50898
molybdenum cofactor deficiency,50898
condyloma,50898
SOCE,50898
Aeolian Islands,50898
Sivelestat,50898
ferry,50898
chiasm,50898
ventral lateral nucleus,50898
Providencia,50898
peroxisome proliferator-activated receptor beta,50898
PTGES3,50898
Time-frequency analysis,50898
Mmp1,50898
GRIN2A,50898
The surplus,50898
DLGAP1,50898
GREM1,50898
Acheulean,50898
ATP5B,50898
PPP3CC,50898
CD84,50898
total television,50898
jarosite,50898
biochronology,50898
Orinoco Delta,50898
ECw,50898
granulosa cell,50898
Leibnitz,50898
protein function prediction,50898
Walloon,50898
Qinghai-Tibetan Plateau,50898
Claraia,50898
auts2,50898
Desferrioxamine,50898
EYA1,50898
DNAJ,50898
cephamycin,50898
GJC2,50898
Lagoa,50898
DFD,50898
Petrography,50898
Hif1an,50898
ERCC5,50898
GoL,50898
ERK MAPK pathway,50898
SLC25A13,50898
Tlokwe Local Municipality,50898
cremasteric,50898
mediator complex,50898
wilting point,50898
Vienna basin,50898
luteoma,50898
intrinsic plasticity,50898
intervertebral disk,50898
The red flag,50898
ileitis,50898
Moraxellaceae,50898
biological target,50898
EpsC,50898
Clinical Dementia Rating scale,50898
ROAM,50898
Lippe,50898
settling time,50898
Carabobo State,50898
British Heart Foundation,50898
Amitriptyline,50898
Saint Francis,50898
hydrophobicity scales,50898
semantic field,50898
scientific consensus,50898
Marine insurance,50898
Corynebacterineae,50898
homochirality,50898
dental amalgam,50898
graia,50898
Kalenjin,50898
Hans Kung,50898
Roer river,50898
Migdal,50898
software evolution,50898
ChR,50898
psychiatric studies,50898
Seki,50898
Efficient Market Hypothesis,50898
sweat gland,50898
nurse-family partnership,50898
live versions,50898
small subunit ribosomal RNA gene,50898
Karl Barth,50898
fusion mechanism,50898
hydrogen embrittlement,50898
trackway,50898
Transplants,50898
standard test signal,50898
Pulsatile flow,50898
ECG monitor,50898
North-West Europe,50898
Innocenti,50898
obliquus internus,50898
Mariana Islands,50898
cognitive linguistics,50898
National Crime Victimization Survey,50898
British Airways,50898
FOSs,50898
Lake Manyara,50898
indistinguishability,50898
action point,50898
virtual physiological human,50898
Codex Alimentarius,50898
backcasting,50898
hereditary spastic paraplegia,50898
direct band gap,50898
Dessel,50898
beta-peptide,50898
antebellum,50898
acromion,50898
pediatric surgery,50898
Apollo 17,50898
Chief Financial Officer,50898
strategic essentialism,50898
implicit egotism,50898
Triticum aestivum,50898
SIMfarm,50898
pulley,50898
algebraic K-groups,50898
WPF,50898
Geneva score,50898
routine activity theory,50898
Genome-wide Complex Trait Analysis,50898
export control,50898
steady growth,50898
shopping mall,50898
Knol,50898
LUSs,50898
Career counselors,50898
Alex Rosenberg,50898
policy mix,50898
Cilk,50898
Litvak,50898
abnormal return,50898
bunker,50898
phosphodiesterase 4,50898
Ga2,50898
sui generis,50898
endorphins,50898
Random walk,50898
LGBT,50898
RDMA,50898
Jewish mysticism,50898
open-outcry,79977
Transport Accident Commission,50898
Pacific Northwest,50898
energy return,50898
tridactyl,50898
spherical wave,50898
Asten,50898
VRF,50898
computational neuroscience,50898
Kanter,50898
applied life sciences,50898
muscarinic acetylcholine receptor,50898
ecological community,50898
Fiume,50898
venomous,50898
International Football Association Board,50898
lot network,50898
electron backscatter diffraction,50898
diamagnetic levitation,50898
migrating groups,50898
JCE,50898
ellipsoidal coordinates,50898
Ab class,50898
sex education,50898
Probit,50898
Rotator,50898
methane release,50898
SU-8,50898
numerical cognition,50898
bioelectronics,50898
Economic welfare,50898
Hadwiger,50898
Maggot therapy,50898
Condylar Hyperplasia,50898
Velcade,50898
WesternGeco,50898
Radix auricularia,50898
Cyprus arc,50898
tribalism,50898
Jeddah,50898
stereophotogrammetric,50898
futurist,50898
accelerating change,50898
interlingua,50898
Molecular diagnostics,50898
rural locality,50898
Louisville,50898
maternity hospital,50898
infant baptism,50898
Somosierra,50898
emergent organization,50898
sequential consistency,50898
Patch test,50898
contingent reward,50898
centralized traffic control,79922
market manipulation,50898
corporate identity,50898
cryptomonad,50898
short selling,50898
Taste Buddies,50898
Indigenous Australians,50898
point-of-use,50898
Reactant,50898
hyphomycetes,50898
nodal pricing,50898
retinal cancer,50898
noncardiogenic pulmonary edema,50898
Stackelberg competition,50898
Reform movement,50898
true 3D,50898
gromos,50898
thoracic wall,50898
traffic analysis,50898
diffuse axonal injury,50898
Group selection,50898
pseudoreplication,50898
pupillary response,50898
Gender segregation,50898
The residents,50898
single-action,50898
medullary thyroid carcinoma,50898
passenger train,50898
UCLUST,50898
VLB,50898
TRIM31,50898
Klinik,50898
alpha-dystroglycan,50898
Multi-Configuration Time-Dependent Hartree,50898
Soil type,50898
INSR,50898
lumiracoxib,50898
Agulhas Return Current,50898
net label,50898
Carpathian Mountains,50898
Ephrin,50898
fas,50898
TGM,50898
Bohemia,50898
Small interfering RNA,50898
hallucination,50898
Macae,50898
MLYCD,50898
Olkusz,50898
Sciara,50898
starry sky,50898
Tibetan fox,50898
Trier,50898
Mar Menor,50898
OIR.,50898
ping-pong,50898
WCWB,50898
emp,50898
Procollagen,50898
tectonostratigraphy,50898
estuarine fish,50898
aggregation problem,50898
Sublingual administration,50898
Turkmen,50898
nontronite,50898
bovid,50898
relative dynamics,50898
Lactose intolerance,50898
CLCNKB,50898
Calgon,50898
greater ranges,50898
small intestinal bacterial overgrowth,50898
Allergic contact dermatitis,50898
Eardley,50898
osmotic pump,50898
Coral Sea,50898
Ets2,50898
Cysteine,50898
Clementi,50898
Influenza A (H1N1),50898
All-trans retinoic acid,50898
Den Oever,50898
Morava,50898
warm-blooded,50898
gmol,50898
cardiac glycosides,50898
Paludibacter,50898
MOCS2,50898
South Western,50898
FANCP,50898
Dynamic simulation,50898
Bellerophon,50898
e124,50898
Fujairah,50898
Carapebus,50898
NOD-like receptor,50898
sPD,50898
Aurora B kinase,50898
Direct coupling,50898
UPK3A,50898
reanastomosis,50898
g7,50898
Fructose malabsorption,50898
SLX4,50898
S-adenosyl-L-methionine,50898
slow flow,50898
Molecular Endocrinology,50898
supergene,50898
Etomidate,50898
GABAA receptor,50898
Olivine,50898
Kornwerderzand,50898
bacteriome,50898
Ubatuba,50898
Gotti,50898
diagnostic code,50898
Evaporite,50898
Mirdita,50898
aortic arches,50898
gestational carrier,50898
paragenetic,50898
Organism,50898
hay fever,50898
amphiregulin,50898
Surinabant,50898
incompatible element,50898
kaolinization,50898
Lingula,50898
Anatomical localisation,50898
SOX6,50898
Rodionov,50898
situs ambiguus,50898
PSMA1,50898
Ostracod,50898
Multivitamin,50898
bioerosion,50898
Sava,50898
"diabetes, gestational",50898
NEK8,50898
Backwash,50898
Spijker,50898
Case fatality rate,50898
plasma pH,50898
cold type,50898
Chi-Square tests,50898
soluble ICAM-1,50898
FtH1,50898
endosteum,50898
False Alarms,50898
Early winter,50898
AADAT,50898
Agathis australis,50898
General circulation model,50898
anisocytosis,50898
Native Americans,50898
transamidation,50898
Ovarian reserve,50898
TOX3,50898
CLIC3,50898
antagonistic pleiotropy,50898
16S ribosomal RNA genes,50898
I network,50898
channel river,50898
nanoshells,50898
snoezelen,50898
NPHP3,50898
Parathion,50898
ijos,50898
RIP1,50898
formal charge,50898
median plane,50898
Maximum Residue Limit,50898
Oxley,50898
Category 5,50898
AKT3,50898
time-frequency analysis,50898
PRKD1,50898
pharmaceutical formulation,50898
LDK,50898
CREB3L1,50898
anti-CD3 antibody,50898
Catalan Coastal Range,50898
LY6E,50898
TRPV6,50898
salt substitute,50898
Environmental tobacco smoke,50898
Hypoxanthine,50898
reticuline,50898
polyhalite,50898
NETO1,50898
Leukocytopenia,50898
Tanypodinae,50898
Cognitive Enhancers,50898
Tbilisi,50898
secretion assay,50898
2011 (C),50898
alveolitis,50898
[MN,50898
ATP2B1,50898
Abl2,50898
HERC5,50898
LFNG,50898
sulfite oxidase,50898
Zonula Occludens,50898
delta-hedging,50898
Sod1,50898
CHUK,50898
SLC4A7,50898
HgF2,50898
ciproxifan,50898
PRPF6,50898
orbitrap,50898
Vipera ammodytes,50898
compartmental modelling,50898
Cdkn2b,50898
Cdk inhibitor,50898
p90RSK,50898
BIDS,50898
BBE,50898
storage organ,50898
RFXANK,50898
DAB2,50898
250 mM,50898
Am J Psychiatry,50898
keratin 1,50898
Point Barrow,50898
Propionate,50898
five-year survival rates,50898
LHX1,50898
Sod3,50898
Apulia,50898
total iron binding capacity,50898
P 7,50898
stratigraphic column,50898
IG group,50898
endolithic,50898
glycohemoglobin,50898
candidate division,50898
Krumbad,50898
Rheometry,50898
Default mode network,50898
pupillary reflex,50898
APAF1,50898
PDE8B,50898
American option,50898
U-206,50898
MRC2,50898
neprilysin,50898
Gpx1,50898
ME-1,50898
RyR,50898
Cretan,50898
Onlay,50898
ALK7,50898
dronabinol,50898
Heilsberg,50898
Cambisols,50898
pyocyanin,50898
HECT domain,50898
Chymotrypsin,50898
urothelial cancer,50898
Hyaluronan,50898
Bt maize,50898
insulin-degrading enzyme,50898
North-west Europe,50898
Makueni,50898
narrativist,50898
Gurkha,50898
platelet-rich plasma,50898
topologically mixing,50898
Technical difficulties,50898
Sybil attack,50898
Uasin Gishu County,50898
preventive maintenance,50898
Tewksbury,50898
Loewy,50898
digitizer tablet,50898
freckling,50898
Fourth Assessment Report,50898
Lentinus edodes,50898
overlap matrix,50898
online therapy,50898
monistic,50898
Alitalia,50898
trabectedin,50898
small-cap stocks,50898
Hawaiian-Emperor Seamount Chain,50898
nursing assistant,50898
Comet assay,50898
Lentinula edodes,50898
run-length encoded,50898
C. concisus,50898
bodybuilding,50898
storm data,50898
LDL-Cholesterol,50898
Elburg,50898
Albert Camus,50898
Central Sulawesi,50898
emotional culture,50898
Gera,50898
Parsing,50898
neurologic disorder,50898
root canal therapy,50898
Flechtingen,50898
core-stable,50898
longitudinal surveys,50898
nonviolent video game,50898
nursing shortage,50898
Public Prosecution Service,50898
neuropsychiatry,50898
superficial epigastric,50898
multiple familial trichoepithelioma,50898
calcium fluoride,50898
residue field,50898
cystic kidney disease,50898
coverage probability,50898
anti-folates,50898
quinoa,50898
workplace bullying,50898
Photosynthetically Active Radiation,50898
hoop,50898
tumour-suppressor genes,50898
maxillary hypoplasia,50898
Federal District,50898
blood alcohol level,50898
Psychosurgery,50898
Shockwave,50898
hierarchical task network,50898
WMIC,50898
high-frequency trading,50898
Thyolo,50898
Landolt C,50898
iniquity,50898
company taxation,50898
corporate crime,50898
Snap-25,50898
Burma,50898
situated knowledge,50898
orthopnea,50898
second-generation antidepressant,50898
isometric scaling,50898
International Central Gospel Church,50898
Gravitational radiation,50898
market abuse,50898
int$,50898
Derealization,50898
health promotion practice,50898
agent-based computational model,50898
bikini,50898
Long term care,50898
human mandible,50898
NNPDF,50898
m.a.s.l.,50898
apical periodontitis,50898
MIASE,50898
k-shortest path,50898
SNT,50898
pursuit-evasion,50898
Raymond,50898
job-shop scheduling,50898
Mark Taylor,50898
Ehlers-Danlos Syndrome,50898
PARK2,50898
Post-traumatic amnesia,50898
Lifeline,50898
National Curriculum,50898
algorithm analysis,50898
American Gastroenterological Association,50898
Donges,50898
deltaic system,50898
interaction frequency,50898
Kir,50898
disfluencies,50898
American football,50898
Karolinska Institutet,50898
Presses Universitaires de France,50898
clinical data management,50898
functional derivative,50898
"Perth, Western Australia",50898
Musandam Peninsula,50898
polarization ellipse,50898
sedative-hypnotic,50898
synaptic pruning,50898
nitrosamine,50898
sigaR,50898
olfactory ensheathing glia,50898
heat shock factor 1,50898
unit commitment,50898
TNFSF13,50898
8-oxo-dG,50898
nabilone,50898
Ekman layer,50898
syndecan-2,50898
Eratosthenes seamount,50898
Dendroaspis,50898
time deviation,50898
Protozoa,50898
subcellular compartment,50898
vandetanib,50898
Metoclopramide,50898
Phaeozems,50898
fluviatile,50898
allanite,50898
Hegau,50898
Bazedoxifene,50898
Podzol,50898
GBE1,50898
Mississippi River,50898
dovitinib,50898
Naja annulifera,50898
17T,50898
Naja nivea,50898
Drd1,50898
Hindeodus parvus,50898
Quantitative Insulin Sensitivity Check Index,50898
PDGF-R,50898
exorheic,50898
Diplura,50898
dolomitisation,50898
Summerville,50898
E75,50898
visceromegaly,50898
Wageningen University,50898
diarylpropionitrile,50898
Atherton Tablelands,50898
E79,50898
flk,50898
Dej,50898
Imatinib,50898
micro-SPECT,50898
Egfr,50898
Hepworth,50898
Elastic fiber,50898
Prodeinotherium,50898
Febrile neutropenia,50898
spinal decompression,50898
US 14,50898
Induan,50898
MAPK/ERK,50898
Adipocyte,50898
ARRs,50898
Ccr7,50898
karstification,50898
suillus,50898
phylogenetic clade,50898
Prodeinotherium bavaricum,50898
HK3,50898
GBE,50898
enterokinase,50898
EM-2,50898
Morphogenesis,50898
xerophilic,50898
begain,50898
helminthiasis,50898
adakite,50898
Wellington,50898
skin flushing,50898
country rock,50898
Seven persons,50898
rural tourism,50898
Changhsingian,50898
lag screw,50898
Medical record,50898
graduated cylinder,50898
Anterior Cruciate Ligament (ACL),50898
stenosing tenosynovitis,50898
Human rights education,50898
circumduction,50898
phase noise,50898
Small-world networks,50898
trichotomy,50898
mung beans,50898
WGR,50898
Hermus,50898
humanin,50898
bipolar II,50898
Flemish region,50898
recombinant inbred strain,50898
Aryl hydrocarbon Receptor (AhR),50898
The Combination,50898
Eduard,50898
Mancos Shale,50898
pasteurizing,50898
GFS Chemicals,50898
Oosterbaan,50898
Pigou,50898
WTAC,50898
starter culture,50898
POET,50898
35W,50898
adult stem cells,50898
Leadbeater,50898
episome,50898
non-alcoholic beverage,50898
Thunnus,50898
hysterosalpingogram,50898
drill stem test,50898
safety stock,50898
cumulative distribution function,50898
Fuzzy Front End,50898
marginal abatement cost,50898
white butterfly,50898
JC polyomavirus,50898
Physical strength,50898
Osteogenesis Imperfecta,50898
Strychnine,50898
Omics,50898
prospective search,50898
Anhui,50898
Criminology,50898
sub-orbital,50898
Dental schools,50898
Nutritionism,50898
Organophosphorus,50898
pJ,50898
Capitella teleta,50898
incest,50898
bioreporter,50898
ends-in-themselves,50898
"1,25-dihydroxycholecalciferol",50898
squared deviations,50898
blackboard,50898
anti-centromere,50898
Gouy,50898
trade liberalisation,50898
hawk dove,50898
spiritual warfare,50898
hypochloremic,50898
M. fortuitum,50898
photobiology,50898
weak force,50898
snowman,50898
Lyme Disease,50898
mixed strategy,50898
peak car,50898
pooled variance,50898
In2,50898
ovulation disorder,50898
maximum surge,50898
Social age,50898
Mesembryanthemum crystallinum,50898
piccolo,50898
OWL-DL,50898
Description Logic,50898
Achterhoek,50898
parliamentary democracies,50898
Sierra Leonean,50898
Autism Diagnostic Observation Schedule,50898
Caulobacter crescentus,50898
morphotectonic,50898
kidney cancer,50898
FSO,50898
Informal sector,50898
support automation,50898
Knowledge Organization,50898
macro environment,50898
Toeplitz operator,50898
River Lambourn,50898
ice VII,50898
rain gauge,50898
Duquesnoy,50898
Donald Kuspit,50898
time invariant,50898
diesel cars,50898
SARPE,50898
application programming interface (API),50898
serine hydroxymethyltransferase,50898
Abstract thinking,50898
SNI,50898
Zinc protoporphyrin,50898
economic dispatch,50898
UNGA,50898
equatorial climate,50898
Turda,50898
psychrophilic,50898
Briand,50898
Arabian Gulf,50898
monoamine transporter,50898
McLaren,50898
Ceres,50898
BMS-345541,50898
basic leucine zipper,50898
spinous layer,50898
enhanceosome,50898
low-barrier hydrogen bond,50898
Anacetrapib,50898
core module,50898
Dacia,50898
pore-fluid pressures,50898
Southern Carpathians,50898
phytodetritus,50898
transudate,50898
Levobupivacaine,50898
clear-cell adenocarcinoma,50898
ABox,50898
Chasma,50898
barge,50898
LU factorization,50898
DPP-4 inhibitors,50898
progressive external ophthalmoplegia,50898
Rheingold,50898
projection function,50898
Zutter,50898
airport security,50898
The cooler,50898
IGA,50898
calendar days,50898
Dynepo,50898
ALMP,50898
Columbia University Press,50898
literate programming,50898
endorphin,50898
pastry,50898
Cucumber,50898
Isocyanide,50898
Secchi disk,50898
attribution bias,50898
ARMM,50898
European Economic Community,50898
International OCD Foundation,50898
discrete variable,50898
formal thought disorder,50898
AMH.,50898
organizational hierarchy,50898
micro-insurance,50898
national school,50898
Cyprian,50898
main variation,50898
British Election Study,50898
Boxford,50898
Craigavon,50898
Saint Philip Neri,50898
global field,50898
proportional fairness,50898
Dutch Parliament,50898
error catastrophe,50898
Regional Atmospheric Modeling System,50898
bifid rib,50898
TOY,50898
feticide,50898
electoral roll,50898
ctypes,50898
overfished,50898
puffy,50898
Dostoevsky,50898
spirit spouse,50898
flexor digitorum brevis muscle,50898
meromictic,50898
Climate Risk,50898
Recognition Memory,50898
norephedrine,50898
bbmp,50898
delft,50898
Pliensbachian,50898
intranet,50898
Repeated Measures ANOVA,50898
tems,50898
Read Only Memory,50898
Golgi tendon organ,50898
clearing factor,50898
Edentate,50898
"Fremont, California",50898
web-scale,50898
fixed-pattern noise,50898
autoregressive conditional duration,50898
Guam,50898
germ layer,50898
cremation,50898
Neurochemistry,50898
fossil wood,50898
hyoid suspension,50898
PINK1,50898
electrodeposited,50898
Global studies,50898
Erwin Baur,50898
aggregate planning,50898
Guadalquivir River,50898
Bhaktapur District,50898
Oppositional Defiant Disorder,50898
Taylor Nelson,50898
Luciola,50898
I feel sleepy,50898
Hospital Episode Statistics,50898
ore dressing,50898
quart,50898
command-line user interface,50898
snuff,50898
AIAG,50898
zearalenol,50898
Dakota Sandstone,50898
antiform,50898
oligo.,50898
Eastern Carpathians,50898
Design Research,50898
Surgical margin,50898
motif discovery,50898
Sharia,50898
non-planar graphs,50898
The extremes,50898
audit risk,50898
serosurvey,50898
Na Hang,50898
FIH,50898
easyJet,50898
Indwelling,50898
computer file,50898
post-industrial societies,50898
kidney cysts,50898
Remineralisation,50898
polycythaemia vera,50898
D 75,50898
Long Term Ecological Research,50898
Besancon,50898
Pierre de Berulle,50898
evaporative fraction,50898
psychological abuse,50898
plastic crystal,50898
instantaneous frequency,50898
ALK protein,50898
FIB-SEM,50898
sex offence,50898
elfin forest,50898
Leontief,50898
mCRL2,50898
high step,50898
transnational organized crime,50898
Brachial Plexus,50898
breaking free,50898
Fairfax,50898
US Census Bureau,50898
Crinia georgiana,50898
IDMS,50898
Ganzi,50898
strong normalization,50898
fracture toughness,50898
Realism,50898
market places,50898
Failure rate,50898
comprehensive outcome,50898
flap transposition,50898
Proleukin,50898
graph properties,50898
An angle,50898
well-founded model,50898
ten rounds,50898
passive euthanasia,50898
Jge,50898
pragmatist,50898
unit testing,50898
Minkowski space-time,50898
NetLogo,50898
Democratic Front,50898
culture industry,50898
water immersion objective,50898
Murex,50898
gas liquid chromatography,50898
EEPROM,50898
ErbB1,50898
Intersectionality,50898
leuprolide,50898
regenerative amplifier,50898
MAGUK,50898
Hebrew grammar,50898
interesting drug,50898
Hemolysis,50898
Kilombero district,50898
computational intelligence,50898
Morrison formation,50898
Mona Lisa,50898
cross-dress,50898
Ivan Karamazov,50898
TePh,50898
John Innes Institute,50898
dense non-aqueous phase liquid,50898
Arhab district,50898
Arthur Danto,50898
iterative function,50898
optical switch,50898
communicative strategies,50898
northeast China,50898
Xilinhot,50898
psychologies,50898
Maitland,50898
Horwitz,50898
Data Integration,50898
Bromus,50898
ziprasidone,50898
lepidic growth,50898
Brasov,50898
R-square,50898
intergenerational mobility,50898
methyllycaconitine,50898
Hordaland,50898
reading education,50898
H 1,50898
Advanced paternal age,50898
Tel Aviv,50898
Informit,50898
Winter Paralympic Games,50898
Johannes Bosscha,50898
Searle,50898
Diagnostic test,50898
low-energy ion scattering,50898
cocking,50898
pentylamine,50898
Communication skills,50898
Rhetoric,50898
pyroptosis,50898
Wakefield,50898
discrete space,50898
distance metric,50898
free software,50898
Positive And Negative Syndrome Scale (PANSS),50898
abbreviated injury scale,50898
glycogen branching enzyme,50898
The tubes,50898
tropical moist forest,50898
damnatio memoriae,50898
Jarai,50898
stickleback,50898
distributed algorithm,50898
Secchi,50898
Optimal control,50898
supererogatory,50898
Aquaculture Stewardship Council,50898
Umea University,50898
Stroop Test,50898
Finnish Broadcasting Company,50898
papillary adenocarcinoma,50898
Genetic polymorphism,50898
Article 9 ECHR,50898
Drylands,50898
exogamous,50898
pre-Pyrenees,50898
Stepfamily,50898
histone-modifying enzymes,50898
French League,50898
Continuous training,50898
phenanthrenes,50898
structure space,50898
shotgun cloning,50898
normative aging study,50898
MIKE 11,50898
clostridium histolyticum,50898
Louis Mink,50898
blue mussel,50898
nitrogen monoxide,50898
moral authority,50898
gross national product,50898
Taman Peninsula,50898
Kisumu District,50898
hypersound,50898
service registry,50898
finger prints,50898
Ant1,50898
Dani Rodrik,50898
gravitropic,50898
ontology components,50898
decision making unit,50898
start point,50898
heteropolysaccharide,50898
Bellman equation,50898
Extinction Event,50898
123I,50898
Hansweert,50898
poly(3-hydroxybutyrate),50898
magnetic resonance venography,50898
test panel,50898
trenNO,50898
Beverwijk,50898
Cohort analysis,50898
illness narrative,50898
probability mass function,50898
EU Commission,50898
Positive psychology,50898
Chlorobenzene,50898
ClogP,50898
hydrostatic weighing,50898
sisterhood method,50898
CCGT,50898
IL-1RAcP,50898
superior gluteal nerve,50898
Allodynia,50898
Brushy Basin member,50898
shared libraries,50898
quadratic extension,50898
Lagrangian system,50898
16-segment,50898
Gumbel distribution,50898
First principles,50898
footfall,50898
percolative,50898
paleobotanical,50898
Geostationary Operational Environmental Satellite,50898
kaleidoscope,50898
reverse engineered,50898
Self-confidence,50898
clinohumite,50898
CC chemokine receptors,50898
peak flow meter,50898
Takao,50898
legal fiction,50898
Jansenist,50898
Baur,50898
Frequency distribution,50898
soft computing,50898
ECMWF Re-Analysis,50898
The Spirit,50898
Evaluation function,50898
Sichuan,50898
sodium hexametaphosphate,50898
channel surface,50898
Global Aquaculture Alliance,50898
Clementine,50898
The PROMs,50898
Carnosine,50898
Dutch Reformed Church,50898
resolution 100,50898
OLST,50898
Jolicoeur,50898
M2 muscarinic receptors,50898
"3,4-dichloroaniline",50898
intraventricularly,50898
Dede,50898
sternoclavicular joint,50898
involuntary euthanasia,50898
Hyoscyamus,50898
Opportunity Rover,50898
Fugu,50898
thermal loading,50898
ornithopod,50898
top dead center,50898
Vienna University,50898
Avanto,50898
diode-pumped,50898
plantar reflex,50898
south Australia,50898
rsta,50898
meth-,50898
polychlorinated dioxins,50898
Prorail,50898
Summerville formation,50898
secondary mutation,50898
Haworth,50898
early life stage test,50898
LexisNexis,50898
Procambarus,50898
Dublin Core,50898
empirical orthogonal function,50898
Dutch representative,50898
MIKE SHE,50898
Phase III clinical trial,50898
operator theory,50898
random number generator,50898
Napoleonic France,50898
medaka fish,50898
sustained global warming,50898
MITI,50898
Calamagrostis,50898
lake district,50898
shortest-path routing,50898
Musculus soleus,50898
baseload,50898
phi coefficient,50898
Tourette Syndrome,50898
Upper cervical,50898
GlobalGAP,50898
eigenproblem,50898
geothermal energy,50898
The final programme,50898
single particle tracking,50898
target center,50898
Lycopene,50898
Aldicarb,50898
Aschersleben,50898
pilin,50898
final impact,50898
Ischaemic Heart Disease,50898
dentinogenesis imperfecta,50898
epeiric seas,50898
Kolmogorov-Smirnov test,50898
Sanguisorba,50898
exocentric,50898
Rubredoxin,50898
The faces,50898
Crayfish,50898
Corynebacterium glutamicum,50898
bone marrow transplant,50898
Egernia,50898
sleep study,50898
Tuberous Sclerosis Complex,50898
Jos,50898
Planimetry,50898
theropod,50898
modified Newtonian dynamics,50898
Endurance Crater,50898
Sinapis arvensis,50898
gigahertz,50898
Bornm.,50898
organic cation transporter,50898
Elisabeth Schiemann,50898
Finger prints,50898
National Blood Service,50898
nucleotidyl transferase,50898
Tetraodon,50898
Head injury,50898
Eudicot,50898
CC0,50898
Chevalley,50898
Tongbai,50898
K75,50898
growth accounting,50898
Michael acceptor,50898
Luria,50898
secular movement,50898
cutoff frequencies,50898
pillow lava,50898
sport club,50898
Women & Health,50898
fecal continence,50898
polycap,50898
Carrier frequency,50898
Saharan Atlas,50898
United Provinces,50898
energy conservation measures,50898
S-adenosyl-l-homocysteine,50898
tropomyosin receptor kinase A,50898
secular equilibrium,50898
Bentall procedure,50898
receptor fields,50898
United Kingdom Prospective Diabetes Study,50898
Catechol-O-Methyltransferase,50898
Arjun,50898
conodont,50898
industrial engineer,50898
excisional biopsy,50898
angle condition,50898
solvated electron,50898
spatial data analysis,50898
Burbank,50898
bundled payment,50898
If children,50898
coevolutionary process,50898
LAIM,50898
Montreal Protocol,50898
MMP16,50898
acoustic emission,50898
fire regime,50898
COAN,50898
toto,50898
mgm,50898
preadipocyte,50898
Five life,50898
ASAIO,50898
HSAB,50898
astrobiologically,50898
Copy number variation,50898
Oversampling,50898
touchscreen,50898
brompheniramine,50898
SD-Card,50898
technological convergence,50898
virtual temperature,50898
Solow residual,50898
Wildfire,50898
German League,50898
Valetta,50898
EPICA,50898
physician assisted death,50898
Essaouira,50898
Building Information Model,50898
scorn,50898
social Trinity,50898
positive swab,50898
Astron,50898
enophthalmos,50898
sporeforming,50898
FV/FM,50898
cool roofs,50898
increased paternal age,50898
hair removal,50898
Nandi District,50898
L-ornithine,50898
Cytotoxic T-lymphocytes,50898
Deborah Cherry,50898
applied linguistics,50898
Immunoglobulin heavy chain,50898
Maori,50898
hereditary spastic paraparesis,50898
CD151,50898
VDT,50898
dog breeder,50898
adjustable gastric band,50898
applied mathematics,50898
Magnetic tweezers,50898
invariant measure,50898
Grayson,50898
self-ownership,50898
Special Educational Needs,81936
Harel,50898
socio-economic panel,50898
radio-quiet neutron star,50898
Vascular endothelial growth factor A,50898
Beat induction,50898
Bedouin,50898
lead apron,50898
For reasons unknown,50898
subject matter jurisdiction,50898
Fundo,50898
Interphotoreceptor retinoid binding protein,50898
root vole,50898
integral basis,50898
combinatorical,50898
bulk metallic glass,50898
Urinary bladder,50898
Loop-mediated isothermal amplification,50898
Parrot AR.Drone,50898
Positive pressure ventilation,50898
compound meter,50898
Galois closure,81957
Socio-cognitive,50898
illiquid asset,81959
Klinger,50898
Balmer emission,50898
exportin,50898
Fluctuating asymmetry,50898
Dirachma,50898
hydatid,50898
Labor mobility,81966
Endocrine diseases,50898
quadratic function,50898
Queiroz,50898
European Council,50898
Almac,50898
Etruscan,50898
self-aligned,50898
Vitronectin,50898
Spectrum Radio,50898
Kolyva,50898
history plays,81977
Cell adhesion,50898
Code-switching,50898
Dry sex,50898
Active galactic nuclei,50898
Pentamidine,50898
mason bee,50898
affine Weyl group,50898
Couchsurfing,50898
Christmas wishes,81986
Dutch School,50898
psymberin,50898
synergistic epistasis,50898
Electoral Studies,50898
2008 US Presidential election,50898
Glycyrrhiza,50898
Arecibo radio telescope,50898
Warren Buffett,50898
biliverdin reductase,50898
chytrid,50898
radical left,50898
Kurt Schneider,50898
Saphenous nerve,50898
Cyclooxygenase-2,50898
omega-3 polyunsaturated fatty acids,50898
Meningococcal disease,50898
Lesser White-fronted Goose,50898
Carotid endarterectomy,50898
Platythelphusa,50898
Rational Expectations,50898
public sex,50898
cotyledon,50898
software instrument,50898
deafferented,50898
Conversation Analysis,50898
Monosodium glutamate,50898
vancomycin resistant Enterococcus,50898
multinational corporation,50898
Sirtuin 1,50898
woolly mammoth,50898
RECQL4,50898
SWIFT J1756.9-2508,50898
Pelobates fuscus,50898
Esophageal cancer,50898
scientific reports,50898
hapax legomena,50898
Genomic imprinting,50898
complete market,50898
Official statistics,50898
Cannaceae,50898
The Outline,50898
Microscope,50898
Ebola virus disease (EVD),50898
Organized crime,50898
Kangaroo care,50898
Kronos,50898
Hirsch-index,50898
modding,50898
Risperidone,50898
Arjun Appadurai,50898
breathless,50898
Den Briel,50898
Henoch-Schonlein Purpura,50898
Congenital amegakaryocytic thrombocytopenia,50898
Pest,50898
Kuramoto model,50898
inference rules,50898
Neolithic Revolution,50898
5-alpha-reductase inhibitors,50898
Internal fixation,50898
Infectious diseases,50898
mannose-6-phosphate,50898
dyadic relations,50898
telecommuting,50898
Eerbeek,50898
Fluorescence Resonance Energy Transfer (FRET),50898
transport theory,50898
Vaughan Williams,50898
pose estimation,50898
query optimization,50898
Levothyroxine sodium,50898
Lobster fishing,50898
Automated decision support,50898
natural language semantics,50898
Puffleg,50898
antimatter,50898
Tumor-infiltrating lymphocytes,50898
climate care,50898
Magnetic anisotropy,50898
WHO Surgical Safety Checklist,50898
spatial mismatch,50898
sialidosis,50898
Laves phases,50898
Constitutionalism,50898
Neural synchronization,50898
Gopnik,50898
Josephson vortices,50898
MITS,50898
Dermatomyositis,50898
Comparative law,82076
onew,50898
f-block,50898
medical informatics,50898
enantioselective hydrogenation,50898
Celts,50898
acute malnutrition,50898
exchange rate mechanism,50898
2004 Indian Ocean tsunami,50898
Limoniidae,50898
supported metal catalysts,50898
Anal intraepithelial neoplasia,50898
linear span,50898
chopstick,82089
NPO,50898
la mer,50898
politicking,50898
Structural Adjustment Programs,50898
electrical synapse,50898
combinator graph reduction,50898
crowdfunding,50898
rapidly progressive glomerulonephritis,50898
SISR,50898
prosexual,50898
multiset,50898
Palestinian-Israeli conflict,50898
Myocardial perfusion imaging,50898
ehrlichiosis,50898
Gusev Crater,50898
conjugate momenta,50898
hollow atoms,50898
Linear stability,50898
Work motivation,50898
Riaz,50898
Whitman Richards,50898
Sexually transmitted diseases,50898
3D scanner,50898
Indian diaspora,50898
high-resolution microscopy,50898
gauge/gravity duality,50898
collective imaginary,50898
Heterochromatin protein 1,50898
Sumner,50898
Iron deficiency anemia,50898
Hamre,50898
Acute lymphoblastic leukemia (ALL),50898
swan neck deformity,50898
Endoplasmic Reticulum,50898
Triphalangeal thumb,50898
meta-communication,50898
microfounded,50898
LHB,50898
Isomalt,50898
Middle Mountain,50898
Jinsha River,50898
LUT,50898
boid,50898
heat wave,50898
Shelah,50898
monolingualism,50898
High-throughput screening,50898
N-Heterocyclic carbene,50898
radiolysis,50898
jazz,50898
Lattice Boltzmann Methods,50898
Breast cancer management,50898
groupware,82142
Nakuru,50898
Suprasellar,50898
Psychological Mindedness,50898
Nicola Guarino,50898
Zygmunt,50898
brainstem glioma,50898
Glycine,50898
Arthrodermataceae,50898
Frank Andrews,50898
giant barrel sponge,50898
Bentiu,50898
2-methoxyethanol,50898
Cytidine deaminase,50898
surgical abortion,50898
electron charge,50898
problem-oriented medical record,50898
Rad23a,50898
SF1,50898
customer retention,50898
ultrapower,50898
parser generator,50898
distributed parameter systems,50898
bad breath,50898
traditional Chinese medicine,50898
Q-fever,50898
American West,50898
urban history,50898
graphics processing unit (GPU),50898
twin anemia-polycythemia sequence,50898
unitary representation,50898
universal property,50898
Hematopoiesis,50898
lightrail,50898
Adjectival,50898
Krusell,50898
Jonathan Edwards,50898
academic entrepreneurship,50898
integer programming,50898
game studies,50898
adenoidectomy,50898
unconditional basic income,50898
KEES,50898
holomorphic vector bundle,50898
exfoliation,50898
neurilemmoma,50898
International Geographical Union,50898
voluntary export restraints,50898
werauhia,50898
credit union,50898
Lectins,50898
human-caused extinctions,50898
database management system,50898
Mass cytometry,50898
Discrimination learning,50898
knowledge search,50898
tuberculosis diagnosis,50898
three-body problem,50898
Erythema dyschromicum perstans,50898
Primary lateral sclerosis,50898
phosphodiesterase 5,50898
telehealth,50898
JX-594,50898
linear-quadratic control,50898
A2m,50898
deferent,50898
PIDO,50898
TED,50898
electromagnetism,50898
BHV-1,50898
Klis,50898
MOCNESS,50898
revanchist,50898
BL Lacertae,50898
Halloween,50898
5RM,50898
FcCH,50898
Nasal irrigation,50898
acquired immune deficiency syndrome,50898
GNR,50898
benzethonium,50898
rice hoja blanca virus,50898
arithmetic series,50898
Celtic Christianity,50898
il-,50898
Nothofagus obliqua,50898
Heliangelus,50898
natron,50898
thermonuclear reaction,50898
hepatic diverticulum,50898
maprotiline,50898
cold iron,50898
thermal loop,50898
torsional mode,50898
Paris-1,50898
randomized evaluation,50898
gill arch,50898
ragweed,50898
Oliguria,50898
Phenprocoumon,50898
SFS,50898
symbiogenetic,50898
Cd40,50898
vestibular papillomatosis,50898
diamond film,50898
Maser,50898
semifield,50898
Suzuki-Miyaura Coupling,50898
holomorphicity,50898
diethyl carbonate,50898
dwarf willow,50898
puerperal fever,50898
Sema3B,50898
percutaneous nephrolithotomy,50898
spastin,50898
Cinnamomum,50898
Cote d'lvoire,50898
Gonomyia,50898
EU referendum,50898
prothionamide,50898
neotype,50898
corn snake,50898
Medion,50898
TAC1,50898
capital requirement,50898
Inami,50898
Kilohertz,50898
tropical medicine,50898
dual equivalence,50898
Au2O3,50898
StF,50898
VVC,50898
bile drainage,50898
UCG,50898
corneal abrasion,50898
Joint Photographic Experts Group,50898
clinical prostate cancer,50898
Gugulethu,50898
Suberitidae,50898
BTO,50898
Job control,50898
Altimeter,50898
stingless bee,50898
C. cyanus,50898
lexical borrowing,50898
thrombolytics,50898
Louis XVIII,50898
Archimedes,50898
lithostratigraphical,50898
heterodoxy,50898
SMAF,50898
integrin alpha6,50898
Holladay,50898
transition mutation,50898
Kaliningrad,50898
SYNGAP1,50898
ITE,50898
topological data analysis,50898
Boston brace,50898
RKD,50898
FERONIA,50898
night vision goggles,50898
bald eagle,50898
C7 protein,50898
mind map,50898
de Volkskrant,50898
unipedal,50898
lanolin,50898
lithocholate,50898
PDK4,50898
Lauge-Hansen classification,50898
IGL,50898
support vector regression,50898
State-trait Anxiety Inventory,50898
sodium picosulfate,50898
insect central nervous system,50898
Celtic Way,50898
reciprocal lattice,50898
cobalt sulfide,50898
lateral condyle,50898
Oct3/4,50898
Poblacion,50898
famine food,50898
etodolac,50898
AQP4,50898
nerve signal,50898
M-v,50898
garum,50898
muscle stretching,50898
Ionomycin,50898
NRL,50898
Greater Baltimore Medical Center,50898
THESEUS1,50898
Force feedback,50898
robust regression,50898
dirac impulse,50898
cunnilingus,50898
circadian rhythm sleep disorder,50898
cationic surfactant,50898
A. oryzae,50898
Peer group,50898
statistical noise,50898
PV module,50898
pararosaniline,50898
spirodiclofen,50898
Mesoamerican Biological corridor,50898
flight helmet,50898
keratin 5,50898
asexuality,50898
glocalisation,50898
semiregular,50898
la introduccion,50898
Via Appia,50898
D 12,50898
synanthropic,50898
ethionamide,50898
earth quake,50898
tendon sheaths,50898
proprioceptors,50898
Bruges,50898
oxygen storage,50898
osprey,50898
double precision,50898
Henkin semantics,50898
biomolecular structure,50898
pleurisy,50898
oxysterol,50898
dithranol,50898
anti-Ro,50898
Kubo formula,50898
Thermal Emission Imaging System,50898
Heerhugowaard,50898
extended coverage,50898
K complexes,50898
Serial dilution,50898
perikymata,50898
cattail,50898
human herpesvirus 6,50898
Praia,50898
Guadalcanal,50898
conditional entropy,50898
metered dose inhaler,50898
Pharmaceutical Biology,50898
Khartoum North,50898
Brocadia fulgida,50898
Sunn pest,50898
closure phase,50898
Potentilla,50898
Resolver,50898
NRXN2,50898
error-detection,50898
psychological mindedness,50898
menthol,50898
Kernohan,50898
Homophobia,50898
magnetic resonance tomography,50898
tirapazamine,50898
IGLS,50898
B. officinalis,50898
Croatian National Corpus,50898
fissiparous,50898
Karolinska University Hospital,50898
Mnemonic,50898
Cytophaga,50898
U2AF,50898
metathetical,50898
Platypleura,50898
semaglutide,50898
euthermia,50898
bacitracin,50898
Pleiotrophin,50898
Rhamnaceae,50898
asset management,50898
heroin assisted treatment,50898
r.t.,50898
thoracic empyema,50898
geneticin,50898
cyclopes,50898
benzyl cinnamate,50898
neuromarketing,50898
N70,50898
Absorption lines,50898
fractionator,50898
quantise,50898
ectoplasm,50898
Asterionella,50898
code-switching,50898
TRH test,50898
alpha myosin heavy chain,50898
"conjunctivitis, allergic",50898
Pica,50898
hematin,50898
enzyme immobilization,50898
brine shrimp,50898
Nederwiet,50898
CRIg,50898
infibulation,50898
Ian Bradley,50898
Lyman continuum,50898
zyxin,50898
OGN,50898
Repeater,50898
New Yorkshire,50898
tinder,50898
cold tracks,50898
Surduk,50898
holonomic,50898
BTCC,50898
aqueduct,50898
cdk,50898
stellar birthline,50898
groEL,50898
anti-La,50898
IFAs,50898
E90,50898
JPEG2000,50898
transnational marriage,50898
diphenylhydantoin,50898
Upper Fremont Glacier,50898
dental extraction,50898
thermochromic,50898
pinacol,50898
beclometasone,50898
a-actinin,50898
solar irradiation,50898
twitching motility,50898
stroboscopy,50898
femur neck,50898
Leptomycin,50898
Sestamibi,50898
E. intestinalis,50898
leprosy control,50898
liver bud,50898
Olig1,50898
New Georgia,50898
OSHA,50898
floating point,50898
polycistron,50898
drug allergy,50898
Epsilonproteobacteria,50898
HIV dementia,50898
moment-generating function,50898
bilirubin diglucuronide,50898
Dutasteride,50898
large-N limit,50898
12-O-Tetradecanoylphorbol-13-acetate,50898
ferrimagnets,50898
magnesium citrate,50898
Inflammasome,50898
Atacama Pathfinder Experiment (APEX),50898
MCPH1,50898
hypsarrhythmia,50898
magnetic alloy,50898
Chloroplast,50898
birnessite,50898
GGZ,50898
Montes Azules,50898
imidazolidinyl urea,50898
Amazonas State,50898
Phenome,50898
metaphysis,50898
Bankart,50898
CR4,50898
superior tarsal,50898
MIBG scan,50898
diisopropanolamine,50898
functional dependencies,50898
epiphora,50898
maximum mode,50898
hyaline membrane disease,50898
FGF4,50898
continuum hypothesis,50898
Pandion haliaetus,50898
Ursus thibetanus,50898
bank vole,50898
SYNJ2BP,50898
K8,50898
CDK5RAP2,50898
Tensile strength,50898
voltage sensitive dye,50898
CYP46A1,50898
lacunar infarct,50898
altitudinal migration,50898
cranial neural crest,50898
black hole high,50898
Sialidosis,50898
Dlx1,50898
coupon,50898
dime,50898
Eosinopenia,50898
parasomnia,50898
electroacupuncture,50898
S6K,50898
cardiotocograph,50898
institutional racism,50898
epidural blood patch,50898
Cabo Verde,50898
finasteride,50898
Wee1,50898
adductor longus,50898
retrograde signalling,50898
Group 90,50898
babassu,50898
enantiotopic,50898
anti-nRNP,50898
phagotrophic,50898
F-31,50898
Santa Isabel,50898
strigolactones,50898
eCAPs,50898
chilli pepper,50898
Hokusai,50898
E150,50898
DDB1,50898
pneumatic retinopexy,50898
Bolsheviks,50898
MS4A1,50898
root lattices,50898
Chitarwata,50898
WPRO,50898
MKKS,50898
adolescent pregnancies,50898
geologic map,50898
alpaca,50898
Lembeh,50898
dystopic,50898
Virasoro algebra,50898
single-precision,50898
Gata1,50898
microhematocrit,50898
true wind,50898
Ron Brown,50898
hominids,50898
kite,50898
ring chromosomes,50898
polynuclear aromatic hydrocarbons,50898
Dryocopus javensis,50898
cFos,50898
grand potential,50898
protoscolices,50898
Malaita,50898
Diminutive,50898
Naked eye,50898
paraplegin,50898
IMAT,50898
neurofibromatosis 2,50898
allostatic load,50898
LSD1,50898
N-body codes,50898
Vieta,50898
SK3,50898
Object recognition,50898
MEIS2,50898
99mTc,50898
mIRL,50898
Lymphokine,50898
CR5,50898
"2,3 BPG",50898
Lymphatic vessels,50898
thought broadcasting,50898
solid phase peptide synthesis,50898
Dlx2,50898
DANS,50898
NRP-1,50898
aldehyde dehydrogenase 9,50898
CCNY,50898
facial resemblance,50898
Imipramine,50898
Rex1,50898
Gata2,50898
WAP,50898
Interferometry,50898
G3BP1,50898
TAC3,50898
Akt3,50898
ecchymosis,50898
LY341495,50898
Chemical classification,50898
Complex III,50898
Dieze,50898
standard solar model,50898
Heisenberg ferromagnet,50898
Ulex europaeus,50898
adiabatic expansion,50898
Stainless steel,50898
Riley,50898
Crataegus,50898
Nerve conduction studies,50898
Diadema setosum,50898
trisomy 22,50898
UTR-2,50898
elasmosaurs,50898
Altica,50898
microphyte,50898
hyposensitization,50898
FCGR3A,50898
type series,50898
Aextoxicon,50898
bismuth oxide,50898
q43,50898
arc-second,50898
C320,50898
Malt1,50898
substantia gelatinosa,50898
recoverability,50898
Polarstern,50898
Vpu,50898
Rory,50898
UVS,50898
weighted gene co-expression network analysis,50898
Kennet,50898
Phosphomolybdic acid,50898
Siberian hamster,50898
CENPJ,50898
LT range,50898
HMTD,50898
white-tailed eagle,50898
claystone,50898
beta thalassaemia,50898
Ephedrine,50898
Eurocat,50898
Hect,50898
nebulize,50898
poderosas,50898
ESR2,50898
FIK,50898
Artibeus jamaicensis,50898
occipital horn,50898
White dwarf,50898
Schwarzschild radius,50898
Epidermophyton,50898
AIMP,50898
ultrasoft,50898
avermectin,50898
Humira,50898
ULD,50898
cytolethal distending toxin,50898
medical simulation,50898
stearoyl-coA desaturase-1,50898
smooth muscle tissue,50898
Laurelia,50898
NCPA,50898
Satricum,50898
evaluation strategy,50898
European Respiratory Journal,50898
coccygeus,50898
neuromelanin,50898
The grafting,50898
EMB,50898
PRK,50898
Mentha aquatica,50898
Sanzinia,50898
infibulated,50898
Lake Toba,50898
European Hematology Association,50898
NHK,50898
nanopore,50898
Hellenistic period,50898
Migration Period,50898
Epimerization,50898
Mlomp,50898
APACHE III,50898
Falciparum malaria,50898
dose-response model,50898
210Pb,50898
xyloglucan,50898
mental schemas,50898
INCA,50898
sAHP,50898
Andranomena,50898
bongo,50898
ED95,50898
Corn oil,50898
Bmi-1,50898
Gum Nebula,50898
rhombencephalon,50898
induced activity,50898
xerosis,50898
Listeriosis,50898
Pichincha,50898
EGGs,50898
RCC1,50898
hippocampal commissure,50898
star polymer,50898
TDCiPP,50898
penbutolol,50898
cytostasis,50898
Ifakara Health Institute,50898
moisture stress,50898
cd69,50898
ANXA11,50898
X-ray background,50898
hydralazine,50898
cytoplasmic space,50898
This heat,50898
temperate rainforest,50898
Jupiter mass,50898
centre region,50898
Pararcus,50898
learning disorders,50898
Mentha,50898
stereocilia,50898
4-H,50898
Greater White-fronted Goose,50898
Marginal analysis,50898
Nothofagus dombeyi,50898
pneumolysin,50898
Heisenberg antiferromagnet,50898
refugee law,50898
Dapsone,50898
Ottawa rules,50898
MLCK,50898
eclosion,50898
thiamine pyrophosphate,50898
DIO2,50898
binding avidity,50898
L-AP4,50898
Montipora,50898
Ras pathway,50898
The corrections,50898
Megafaunal,50898
continental lithospheric mantle,50898
caspase 1,50898
Badr,50898
disability adjusted life year,50898
European hedgehog,50898
solar minima,50898
Bitung,50898
Multiple gestation,50898
Eucryphia,50898
Herbivore,50898
hibernator,50898
gasserian ganglion,50898
HOXA13,50898
blackberry,50898
Water model,50898
autapomorphies,50898
Debridement,50898
c-Myb,50898
CCM2,50898
deep gap,50898
Kakaban,50898
Mn2(CO)10,50898
ribulose,50898
milliwatt,50898
protein therapy,50898
D. indica,50898
MonoMAC,50898
The touch,50898
polatuzumab vedotin,50898
Aldershot,50898
Current clamp,50898
testicular atrophy,50898
oxidizing agent,50898
diazoxide,50898
North American Great Lakes,50898
AEL,50898
nucleophosmin,50898
pin-point method,50898
PAR-4,50898
trichomonas,50898
titanium white,50898
expert witness,50898
basin groups,50898
DEHA,50898
CYP8B1,50898
small nucleolar RNA,50898
Vasilikos,50898
sulfonylurea receptor,50898
methyl vinyl ketone,50898
Artibeus lituratus,50898
microturbulence,50898
N force,50898
autoimmune chronic hepatitis,50898
sGaw,50898
SPINT2,50898
Nuclear factor-kappa B,50898
hopper crystal,50898
hexamine,50898
corneodesmosin,50898
HD 49798,50898
GYPB,50898
electrical conductance,50898
Cav1.3,50898
Ryanodine receptor 2,50898
lenticulars,50898
myotome,50898
permeability constant,50898
photoelectrochemical cell,50898
wax ester,50898
CYP7B1,50898
aminosugars metabolism,50898
Celtic revival,50898
FileMaker,50898
methylone,50898
Higgs potential,50898
multiple daily injections,50898
salivary duct,50898
Pasteurization,50898
RyR3,50898
S. officinalis,50898
octanol-water coefficient,50898
Structured design,50898
collision frequency,50898
meta-xylene,50898
semi-supervised learning,50898
Orlistat,50898
Winsor,50898
Methylocystis,50898
CD147,50898
brass instrument,50898
kites,50898
Ponginae,50898
flowering plant,50898
OMRON,50898
msrB,50898
Caldcluvia paniculata,50898
genitourinary tract,50898
Foursquare,50898
Partial Agreement,50898
acyclic digraph,50898
land speculation,50898
gastrointestinal problem,50898
cystic nephroma,50898
Heusler alloy,50898
credit crunch,50898
potato cyst nematode,50898
abducens nucleus,50898
Aeolis,50898
total conversion mod,50898
UNESCO,50898
Dulzura,50898
Konigsberg,50898
post-mastectomy,50898
basic income,50898
Kranton,50898
mebeverine,50898
complex division,50898
leadership dynamics,50898
Bjork,50898
City streets,50898
SK2,50898
EFMD,50898
graph reduction,50898
Gambia River,50898
cerebellar model arithmetic computer,50898
Anser erythropus,50898
World Intellectual Property Organization (WIPO),50898
The spores,50898
radioactive waste,50898
Lyciasalamandra,50898
Fourier modes,50898
chiral anomaly,50898
absolutely irreducible,50898
cancer ward,50898
amyotrophy,50898
group presentation,50898
P(C6H5)3,50898
titanium carbide,50898
pairing function,50898
ketimine,50898
Cairo,50898
WFPC,50898
GeForce,50898
institutional analysis,50898
argon (Ar),50898
methylenedioxypyrovalerone,50898
SS7,50898
digital cinema,50898
Occupied Palestinian Territories,50898
Jovian system,50898
Eriocnemis,50898
subsidy reforms,50898
monoclonal antibody therapy,50898
decametric,50898
Orbis,50898
alpha frequency range,50898
Weyl fermion,50898
stereoblindness,50898
Netherlands Foreign Investment Agency,50898
market maker,50898
Lilongwe,50898
interventional neuroradiology,50898
renminbi,50898
Hamamatsu,50898
Service Oriented Architectures,50898
Ru3(CO)12,50898
CCDC,50898
Decapoda,50898
mixed electoral system,50898
anaesthesiology,50898
data literacy,50898
carbon-hydrogen bond activation,50898
Tunisian revolution,50898
solidarity movement,50898
picoplankton,50898
Surrogates,50898
citizen action,50898
Goldman Sachs,50898
Georgian,50898
Deutz,50898
Brielle,50898
Reliability Engineering,50898
dialogic learning,50898
basic life support (BLS),50898
American Dream,50898
Auger decay,50898
emulsion stability,50898
Lepidochelys olivacea,50898
explorative data analysis,50898
ATLAS Experiment,50898
seasonal adjustment,50898
totalitarianism,50898
solid geometry,50898
cardioselective,50898
Welsh people,50898
statine,50898
New England theology,50898
consumer organization,50898
Thousand Islands,50898
"Cranbury, NJ",50898
agent environment,50898
compiler construction,50898
anterior interosseous nerve,50898
wave-particle duality,50898
qadi,50898
SLC13A5,50898
NeuroRehabilitation,50898
customer profitability,50898
proactiveness,50898
au soleil,50898
euclidean quantum gravity,50898
algebra representation,50898
behaviorist,50898
veterinary drug,50898
adaptive user interface,50898
psip,50898
photorefractive,50898
universal service,50898
plesiosaurs,50898
Huckleberry Finn,50898
thiazine,50898
Kauffman bracket,50898
Quito,50898
Hillman,50898
matrix Riccati equation,50898
portacaval anastomosis,50898
structured packing,50898
WABA,50898
Intersystem crossing,50898
"Science, Technology, & Human Values",50898
chemiosmotic,50898
blood sugar level,50898
functional morpheme,50898
Automaticity,50898
Hiragana,50898
coconut water,50898
Puyehue,50898
Internet Movie Database,50898
Triglochin maritima,50898
Mammuthus primigenius,50898
Puncturing,50898
McCallum,50898
sustainability studies,50898
critical geopolitics,50898
respiratory airways,50898
inverse distance weighting,50898
defined contribution,50898
Mik,50898
mali,50898
Beppo-SAX,50898
Gentianella,50898
respiratory rhythm,50898
affine Lie algebra,50898
phase-contrast microscope,50898
display behaviour,50898
Epidermophyton floccosum,50898
Jan Dibbets,50898
Bretton Woods system,50898
vertical datum,50898
cellulosic bioethanol,50898
tau cross,50898
Student engagement,50898
Chorionic villi,50898
structured support vector machine,50898
chylous ascites,50898
lexical semantics,50898
Pteropodidae,50898
oeconomus,50898
music share,50898
worlds collide,50898
Vahl,50898
conditional intensity function,50898
teratology,50898
Schwinger-Dyson equation,50898
spiny lobster,50898
MIST,50898
BMGs,50898
Myrmecocichla,50898
random deviation,50898
centrosomal,50898
Toplady,50898
tax deduction,50898
Seiberg,50898
excitatory amino acid,50898
Pediciidae,50898
Futurebus,50898
obturator membrane,50898
Jasanoff,50898
HV1,50898
Quasar,50898
Pie Town,50898
BRST cohomology,50898
IACO,50898
SN 2006gy,50898
population viability analysis,50898
Demirci,50898
Gastric distension,50898
BMPR1b,50898
European ground squirrel,50898
E47,50898
Anthropometrics,50898
gelatine,50898
gene gun,50898
PstI,50898
Greenhouse Gases Observing Satellite,50898
countercurrent multiplier,50898
injection-drug,50898
Salween,50898
adrenergic agonist,50898
Chusquea,50898
FRIL,50898
Starburst galaxies,50898
Calliergon giganteum,50898
Benicia,50898
Afro-European,50898
glaze,50898
physis,50898
MDPV,50898
LBV,50898
heart chamber,50898
Larsson,50898
c-Abl,50898
Sphingolipid,50898
time-varying covariate,50898
hydrazobenzene,50898
Outbreeding depression,50898
destructive fishing practices,50898
native pacemaker,50898
SHIRPA,50898
intermittent positive pressure ventilation,50898
Terminalia,50898
enzootic,50898
lost paradise,50898
focus spread,50898
Oligomer,50898
routine vaccinations,50898
Grain growth,50898
long-branch attraction,50898
neural spine,50898
GOSAT,50898
dehalogenase,50898
SHIP-1,50898
Pancreatic polypeptide,50898
.pg,50898
Laureliopsis philippiana,50898
pachyostotic,50898
Melagatran,50898
ACTN2,50898
ARG-1,50898
Pelobates cultripes,50898
ASCL1,50898
linkage equilibrium,50898
5-Azacytidine,50898
emulsifier,50898
MAP kinase phosphatase,50898
11-dehydrocorticosterone,50898
glacial acetic acid,50898
Rate ratio,50898
Malondialdehyde,50898
Navy,50898
purine nucleoside phosphorylase deficiency,50898
medial vestibular nucleus,50898
chloramine,50898
Electronic Medical Record,50898
brown algae,50898
IKK2,50898
Attiki,50898
Irish literature,50898
myoepithelioma,50898
paralog,50898
Reverse T3,50898
beta blocking agents,50898
Ce2O3,50898
Ne 11,50898
Darlington,50898
thermocycler,50898
Indometacin,50898
bropirimine,50898
pancreatic juice,50898
Pongo tapanuliensis,50898
Cav1.2,50898
Carcass,50898
Minimum Inhibitory Concentration,50898
transcatheter arterial chemoembolization,50898
KLF1,50898
Asthma UK,50898
Mediastinitis,50898
Pelobates varaldii,50898
activation loop,50898
glutelin,50898
International trade,50898
VGLUT,50898
anacetrapib,50898
Direct binding,50898
SNRPD3,50898
photopheresis,50898
49 percent,50898
neuroblastic cells,50898
Autograft,50898
syrinx,50898
Hypophosphataemia,50898
Tetrahydrobiopterin,50898
SLCO1B1,50898
prenatal nutrition,50898
Hepatic fibrosis,50898
malate-aspartate shuttle,50898
HEY1,50898
Columbia Hills,50898
vestibular nucleus,50898
activin receptors,50898
Segmental arteries,50898
atropisomerism,50898
clitoral photoplethysmograph,50898
healthy soils,50898
NOS1,50898
Late Neoproterozoic,50898
Pilgerodendron,50898
lung lobes,50898
reticular dermis,50898
functional selectivity,50898
Acrantophis dumerili,50898
rhodium(III) chloride,50898
el cambio,50898
nec,50898
swarming behaviour,50898
neuromedin B,50898
Celtic languages,50898
par4,50898
synonymous substitution,50898
Nicollet,50898
Omi/HtrA2,50898
Low molecular weight heparin,50898
STR3,50898
S. decipiens,50898
stress fatigue,50898
Fitzroya,50898
DVN,50898
XAB2,50898
nitrogen fixing,50898
NEUROD1,50898
pCO2,50898
lenticular galaxies,50898
Ondansetron,50898
TIRAP,50898
Hnf6,50898
hydrodenitrogenation,50898
CENPF,50898
HMHA1,50898
ventricular premature complexes,50898
S0 galaxies,50898
Nothofagus,50898
melagatran,50898
HNRNPL,50898
glutamate-glutamine cycle,50898
PALE,50898
Hib vaccine,50898
LAPD,50898
Maunder minimum,50898
Molecular clock,50898
Sunderland,50898
allelle,50898
retrospective diagnosis,50898
Cochran-Mantel-Haenszel test,50898
Hnf1b,50898
cannabinol,50898
Ross procedure,50898
HIV-HCV co-infection,50898
coagulation defects,50898
picomoles,50898
sternocleidomastoideus,50898
source rock,50898
Carpathian Basin,50898
digital signal processing,50898
sucrose gradients,50898
M56,50898
LAB rats,50898
pi-bond,50898
LY96,50898
e424,50898
Mur,50898
Kozani,50898
3PG,50898
Galleria mellonella,50898
WHIR,50898
M. avium complex,50898
muskrat,50898
air interface,50898
hyperthermia therapy,50898
Euro6,50898
SolV,50898
Potamoidea,50898
Capital market,50898
inclusive business,50898
acetone azine,50898
Vinkeveen,50898
FSAs,50898
Haemoglobinuria,50898
Indigenous Fijians,50898
chemical substance,50898
b2c,50898
"cholecystectomy, laparoscopic",50898
General relativity,50898
universal conductance fluctuations,50898
Beckett,50898
archaism,50898
Warsaw Uprising,50898
1-decene,50898
Fortress Europe,50898
Special Protection Area,50898
Einstein-Hilbert action,50898
protease-activated receptor,50898
Alpha blockers,50898
pericentrin,50898
acetamides,50898
Cylindrotomidae,50898
moderating power,50898
replicator equation,50898
Mary Berenson,50898
stellar system,50898
NGC 4258,50898
relaxation method,50898
Jewish philosophy,50898
nonperson,50898
social constructivists,50898
Medellin,50898
Cochin,50898
half-wave plate,50898
Voevodsky,50898
Mesoamerican Biological Corridor,50898
homing pigeon,50898
Linking Open Data,50898
"Mendoza, Argentina",50898
Pitx1,50898
charge-conjugation,50898
Gifford,50898
Bidens pilosa,50898
reflection group,50898
Solovay model,50898
uliginosa,50898
adaptive user interfaces,50898
second-price sealed-bid auction,82089
pigeonhole principle,50898
associativity,50898
heavy oil,50898
Croy,50898
Microsporum audouinii,50898
psychological dependency,50898
ADM formulation,50898
generation stage,50898
co-payment,50898
rheometry,50898
type-theoretic,50898
Welsh language,50898
digenetic trematode,50898
convergent boundary,50898
Oded Schramm,50898
Psychological Medicine,50898
polycystic liver disease,50898
Akron,50898
exterior power,50898
Pagsanjan Falls,50898
Jakarta Bay,50898
population genomics,50898
Hurricane Sandy,50898
pentamethyl,50898
shape theory,50898
Galilean moons,50898
nasolacrimal duct,50898
mufti,50898
krypton (Kr),50898
Grand Cayman,50898
king penguin,50898
Frankfurt School,50898
ndb,50898
equivariant cohomology ring,50898
anti-Americanism,50898
subprime mortgage crisis,50898
Tschudi,50898
graph partition,50898
Donna Haraway,50898
Mindfulness meditation,50898
CMAC,50898
cation exchanger,50898
rightful resistance,50898
Information Society,50898
NOMAD,50898
Cystitis,50898
Latin settlement,50898
flavour enhancer,50898
heterogeneous cancers,50898
Bromeliales,50898
general blue,50898
Bologna declaration,50898
lava cave,50898
Migration studies,50898
Maraviroc,50898
rotating magnetic field,50898
Temperance Movement,50898
Riccati equation,50898
Pintz,50898
Pol II,50898
combinator,50898
tonal languages,50898
Mapia,50898
NU.nl,50898
OSPF-TE,50898
Microseris bigelovii,50898
Indian art,50898
tacking,50898
dehydrochlorination,50898
Gamma distributed,50898
Philips Research,50898
hominoid,50898
tensor algebra,50898
cosmological model,50898
Israeli-Palestinian peace process,50898
intervening variable,50898
Lake District,50898
IDW,50898
Madagascan,50898
Nuer,50898
Diotima,50898
Iconoclasm,50898
Piacenza,50898
Cercomela,50898
Maputo province,50898
IsoStar,50898
optical axis,50898
photoprotein,50898
WASP-33b,50898
safety pharmacology,50898
Environmental studies,50898
NGC 6752,50898
Alq3,50898
Drakensberg Mountains,50898
Schiesser,50898
Nieuw-Vennep,50898
high-energy X-rays,50898
obturator canal,50898
Panulirus,50898
Hyperammonaemia,50898
obfuscation,50898
sequestosome 1,50898
Very long chain fatty acids,50898
budbreak,50898
placodont,50898
delta waves,50898
Melton,50898
Bey,50898
extrapyramidal side effects,50898
self-mutilation,50898
ponerine,50898
Marlborough,50898
dichlorobenzene,50898
Hong Kong Special Administrative Region,50898
hyaluronan synthase,50898
MBV,50898
phosphatidic acid,50898
water gas shift reaction,50898
Bergmann gliosis,50898
Cd44,50898
Voronoi tessellation,50898
pharmaceutical compound,50898
IGHG1,50898
chronic pyelonephritis,50898
shock heating,50898
Grevena,50898
DCl,50898
BALT,50898
TRPV,50898
thermal conduction,50898
TLR10,50898
phylogenetic network,50898
ajra,50898
MNS system,50898
Crvenka,50898
liver protein synthesis,50898
Hartlepool,50898
growth hormone secretagogue,50898
Levothyroxine,50898
propiverine,50898
Composting,50898
CJ group,50898
electrophoretic mobility shift assay,50898
Stockton,50898
MASH-1,50898
antinuclear antibody,50898
Diabetology,50898
celiac artery,50898
pyelectasis,50898
founder events,50898
Malattia Leventinese,50898
t-statistic,50898
equation solving,50898
BCL-x(L),50898
hypoxic ischaemic encephalopathy,50898
Nervous tissue,50898
rho kinase,50898
hypolipidemic,50898
Knock-out mice,50898
interleukin 17A,50898
Huy,50898
eIF-4E,50898
Austrocedrus,50898
TRP channel,50898
PDE1B,50898
Isoflurane,50898
Aachen,50898
methanotroph,50898
Aggrecan,50898
Drimys winteri,50898
eEF2,50898
Federico II,50898
Sodium picosulfate,50898
Retzius,50898
guided bone regeneration,50898
lung consolidation,50898
Liguria,50898
platelet inhibitor,50898
medial ganglionic eminence,50898
renal physiology,50898
rough endoplasmic reticulum,50898
mesh generation,50898
intralipid,50898
Carbapenem,50898
HLA-DR11,50898
ASIC,50898
automated mapping,50898
Wijnjewoude,50898
triethylaluminium,50898
fibrinoid,50898
solid torus,50898
R-value,50898
Javanese Lapwing,50898
Bernard Williams,50898
differential object marking,50898
Zingiberene,50898
Taipei,50898
Exclusive Economic Zones,50898
Xinjiang,50898
Carbaryl,50898
nitrogen-15,50898
Caribbean Region,50898
GalR,50898
Myodes glareolus,50898
enu,50898
symmetric-key,50898
land titling,50898
inclusive business models,50898
television violence,50898
hover flies,50898
yuan,50898
clinical electrophysiology,50898
prehospital emergency care,50898
short tails,50898
magnetic resonance Imaging (MRI),50898
aequorin,50898
Soviet Russia,50898
RKKY interaction,50898
anammox,50898
Jewish Dutch,50898
lord chamberlain,50898
community health center,50898
chord diagram,50898
nudity,50898
sociologist,50898
Paraponera,50898
lambda-ring,50898
cartesian closed category,50898
desegregation,50898
Ma'adim Vallis,50898
C#,50898
Huntingtin,50898
Irian Jaya,50898
Allylic oxidation,50898
geodesically complete,50898
Adorno,50898
cronyism,50898
Biological Psychology,50898
3 turn,50898
plutonium,50898
Michelin,50898
fixed-dose combination,50898
matrix games,50898
Pantherophis guttatus,50898
ossification center,50898
Gemini,50898
spiropyran,50898
anubis,50898
spastic paralysis,50898
Medical Emergency,50898
infinite system,50898
CDK inhibitor,50898
Flemish Belgium,50898
wall-crossing,50898
Malpractice,50898
Interbank,50898
Persistent Organic Pollutants (Pops),50898
n1F,50898
cyborg,50898
PKD2 mutations,50898
Lebesgue measurable,50898
smooth endoplasmic reticulum,50898
botulinum neurotoxin,50898
endergonic,50898
Urinary Tract Infection,50898
Romanian Roma,50898
Indo-Fijians,50898
ADHD Predominantly Inattentive,50898
reinforcement sensitivity theory,50898
lead management,50898
Yerevan,50898
texture map,50898
LHC Computing Grid,50898
Luteinizing Hormone,50898
Borago,50898
vector bundle,50898
motor reflex,50898
Microsoft,50898
artist collective,50898
factitious disorder,50898
Geranium,50898
Poses,50898
Streptoverticillium mobaraense,50898
semantic theory,50898
Canadian province,50898
consumer organisation,50898
type description,50898
Anas platyrhynchos,50898
Ganymede,50898
conformal mapping,50898
net foreign assets,50898
Tangail District,50898
triple meter,50898
sustainable development agenda,50898
obturator nerve,50898
flea beetle,50898
Harborview Medical Center,50898
connected ring,50898
global exchange,50898
Logan Pearsall Smith,50898
Coquimbo,50898
alternating bit protocol,50898
Aptenodytes patagonicus,50898
Super Mario World,50898
African Palliative Care Association,50898
locative case,50898
binocular disparities,50898
PCNT,50898
placenta previa,50898
subjunctive,50898
exotica,50898
input-output models,50898
simplicial presheaves,50898
PsychLIT,50898
Point Spread Function,50898
fashion design,50898
radiosity,50898
INEGI,50898
Martianus Capella,50898
SN 1572,50898
Halik,50898
nitroxyl,50898
SU Ursae Majoris,50898
Zizek,50898
Disulfiram,50898
De Hoop Nature Reserve,50898
land bank,50898
copper sulfate,50898
hexamethylene triperoxide diamine,50898
simple paths,50898
Fintan Cullen,50898
ethnopharmacological,50898
Picasa,50898
Insulinoma,50898
phylotypic stage,50898
DBCs,50898
Andasibe,50898
interrupted time series design,50898
Ohio,50898
Vkontakte,50898
Asian cuisine,50898
Carbamazepine,50898
Ciglitazone,50898
compost heap,50898
IL1RL1,50898
orthorhombic crystals,50898
A461,50898
solar power,50898
Gondwana Research,50898
inhalational anesthetics,50898
cysticercus,50898
methionine oxidation,50898
DRg,50898
unknot,50898
Mandelieu,50898
cardiac tumors,50898
Lamme,50898
St.Gallen,50898
category theoretical,50898
Ivana,50898
overcompensating,50898
alternating sign matrices,50898
profit maximization,50898
DELTA-K,50898
indirect band gap,50898
Nakajima-Zwanzig equation,50898
beam divergence,50898
glutamate-gated chloride channel,50898
East Anglia,50898
flashlamps,50898
Heeze,50898
Pontryagin space,50898
matrix inversion,50898
WMSs,50898
shadow bands,50898
traffic calming,50898
data applied,50898
Binge drinking,50898
Child labor,50898
SKS,50898
strategic voting,50898
cardiopathy,50898
slug flow,50898
T-X,50898
soft target,50898
Siamese twins,50898
linear representation,50898
single-cell analysis,50898
tubulointerstitial nephritis,50898
Maxwell-Boltzmann distribution,50898
Francophone,50898
constraint optimization,50898
body checking,50898
parametric test,50898
Pauli exclusion principle,50898
Factitious Disorder,50898
Timor,50898
holonomic constraints,50898
unreliable narration,50898
endopodite,50898
Scelionidae,50898
Royal Dutch/Shell,50898
chiral algebra,50898
rubidium-82,50898
Grothendieck group,50898
Infiniband,50898
geotagged,50898
National Death Index,50898
Iconic memory,50898
WPA,50898
water frogs,50898
Stewart platform,50898
Luzon,50898
docking station,50898
mean-shift,50898
chondroma,50898
Equa,50898
sunburn,50898
Zacher,50898
closed curve,50898
Zeist,50898
DCTN4,50898
Deoxycytidine triphosphate,50898
Anisian,50898
Polatuzumab vedotin,50898
homonegativity,50898
Schreber,50898
generic extension,50898
cytochrome oxidase subunit 1,50898
Illuminance,50898
pelvic ultrasound,50898
Sao Paulo State University,50898
Molecular phylogenetic,50898
assistive technologies,50898
light cone gauge,50898
urinary system,50898
Debye-Waller factor,50898
Council Presidency,50898
Islamic fashion,50898
Flamenco,50898
Z-group,50898
conventional current,50898
Network Description Language,50898
Cotrimoxazole,50898
accelerometric,50898
These ties,50898
Zoological Museum,50898
Mufti,50898
Broekhuizen,50898
Amelanchier lamarckii,50898
Angiotensin-II,50898
"Cuenca, Ecuador",50898
no-slip condition,50898
withdrawal reflex,50898
Medium Theory,50898
butylone,50898
penal law,50898
bile duct tumor,50898
halogenated hydrocarbon,50898
para-nitrophenylphosphate,50898
Significant Others,50898
echinoderm,50898
Dutch collaboration,50898
cubic space group,50898
2-form,50898
Van Buren,50898
command-line utility,50898
All platinum,50898
parentage testing,50898
MseR,50898
Transparency Register,50898
maximum entropy principle,50898
Polyphagotarsonemus latus,50898
cutoff function,50898
frame bundle,50898
protective apron,50898
KID,50898
Laminaria digitata,50898
mods,50898
measure R,50898
analysis windows,50898
genetic rescue,50898
Cassegrain,50898
exequatur,50898
pure set,50898
FTOs,50898
Cygnus Loop,50898
UT2,50898
CETP Inhibitor,50898
voltage source,50898
University College,50898
TADDOL,50898
Pythagorean,50898
FF1,50898
Atlantic Rainforest,50898
CMIN,50898
Schur functions,50898
Appellate Body,50898
antiplasmodial,50898
uniqueness theorem,50898
Heteroskedasticity,50898
Philippe le Bon,50898
Nazis,50898
Dalmatian,50898
STARLAB,50898
UNESP,50898
neuroglycopenia,50898
Hellenistic,50898
non-monogamy,50898
Feistel network,50898
cerebral oedema,50898
muschelkalk,50898
chivalry,50898
Sacroiliac joint,50898
rule induction,50898
bacterial outer membrane,50898
drum kit,50898
Melanic,50898
subprime crisis,50898
father figures,50898
temporal artery,50898
traditional healing methods,50898
bovine viral diarrhea,50898
broadleaf tree,50898
expansion chamber,50898
atypical teratoid/rhabdoid tumour,50898
Cellulose,50898
The Final Cut,50898
Kelaniya,50898
FEs,50898
Gayatri Spivak,50898
hysteresis loss,50898
Transurethral microwave thermotherapy,50898
phlegm,50898
mtDNA control region,50898
Phyllostomidae,50898
Wide-Angle X-ray Scattering,50898
planetary radio,50898
single member district,50898
Latent Dirichlet allocation,50898
eczema herpeticum,50898
Acta Math.,50898
continuous passive motion,50898
tensile test,50898
Schaumburg,50898
transmetalation,50898
Asian financial crisis,50898
MRAs,50898
Offinso,50898
tooth crown,50898
nonpartisan,50898
Dysthymic,50898
presentism,50898
oculomotor nuclei,50898
SRT1720,50898
bioelectrochemistry,50898
Population Council,50898
pontine micturition center,50898
diffuse reflectance infrared Fourier transform,50898
Bacterioplankton,50898
Hobart,50898
megalocornea,50898
biological species concept,50898
historical cost,50898
hexamethylenetetramine,50898
open-loop model,50898
stereopsis,50898
Karlin,50898
polynomial expression,50898
outbreeding depression,50898
Acropora cytherea,50898
K-X,50898
Cladosporium herbarum,50898
trawler,50898
double exponential distribution,50898
The leads,50898
TFlops,50898
Geraniaceae,50898
Cladonia portentosa,50898
flag variety,50898
cGAS,50898
ATM kinase,50898
Bernard Berenson,50898
Psych,50898
Game studies,50898
rapid response team,50898
monopodial,50898
keyframes,50898
Abdominal ultrasound,50898
Echo Planar Imaging,50898
carbinol,50898
imaging spectroscopy,50898
Solovay,50898
Susa,50898
snickers,50898
data monitoring committee,50898
serotonin receptor antagonist,50898
agile method,50898
phototaxis,50898
Jennerex,50898
Green Cross Corporation,50898
Giheung-Gu,50898
Yongin,50898
Votive deposit,50898
Eurygaster,50898
Edgeworth,50898
Klein Sexual Orientation Grid,50898
Energy minimization,50898
movie camera,50898
Global brain,50898
accounting management,50898
dark years,50898
eager evaluation,50898
Sea ice,50898
shortwave,50898
cardiac resuscitation,50898
Siaya,50898
income statement,50898
Acrantophis,50898
alkylating reagent,50898
enzyme engineering,50898
Lagrangian equations,50898
stellar magnitude,50898
electric circuit,50898
Vrms,50898
glycoprotein VI,50898
ALS2,50898
immunoglobulin allotypes,50898
beta-binomial model,50898
Article 6(2),50898
The sponge,50898
Gascoyne,50898
Chrysomelidae,50898
Modernism,50898
shift register,50898
rictor,50898
Deep learning,50898
naphyrone,50898
tenor horn,50898
null geodesic,50898
outright monetary transactions,50898
Chilton,50898
WIPO,50898
CLO test,50898
leapfrog integration,50898
health care financing,50898
toxaemia,50898
keratoprosthesis,50898
Morogoro region,50898
Suicide Prevention Action NETwork,50898
Riemann solver,50898
Telugu,50898
plastron,50898
High Resolution Stereo Camera,50898
Peer pressure,50898
Wish,50898
Isabella,50898
oligodendrocyte precursor cell,50898
CDK1,50898
Danang,50898
customer development,50898
bromocresol green,50898
capital account,50898
posterior horn,50898
pregnancy chance,50898
organic-rich sedimentary rocks,50898
predatory lending,50898
Autonomous Community,50898
Cluster II,50898
Campo Lameiro,50898
Sirt1,50898
Liquid-liquid extraction,50898
CBC-MAC,50898
Banggai Islands,50898
parish,50898
Arab news,50898
Angela Merkel,50898
Ashbya gossypii,50898
intrinsic width,50898
capacity optimization,50898
commissurotomy,50898
Digital Terrain Model,50898
para-xylene,50898
Subcloning,50898
Saint Petersburg,50898
Reverse-phase HPLC,50898
transfixation,50898
tree approaches,50898
Marchesini,50898
lauroyl,50898
humoral immune deficiency,50898
multimodal distribution,50898
plethysmograph,50898
Anthoceros,50898
Trade-off,50898
national scientists,50898
Franco Moretti,50898
legal formalism,50898
Blink,50898
ladybird beetle,50898
herbrandization,50898
point pattern analysis,50898
folk medicine,50898
spectral karyotyping,50898
Monodelphis,50898
post-materialist,50898
thermonuclear burning,50898
postcolonial theory,50898
HSPA,50898
nominal measurement,50898
global financial system,50898
integrin-linked kinase,50898
mercaptan,50898
whistle,50898
Razborov,50898
distance transform,50898
heterogeneous catalyst,50898
Zingiber,50898
photoelectrochemistry,50898
Ordinality,50898
HOX gene,50898
Michaelis-Menten equation,50898
quadratic convergence,50898
capillary condensation,50898
palladium(II) acetate,50898
microcephalic osteodysplastic primordial dwarfism type II,50898
Rhoads,50898
Philippine sailfin lizard,50898
Thin Film Transistor,50898
colibacillosis,50898
Codebreaker,50898
Ejaculation,50898
Oakland,50898
injectable drug,50898
Asystole,50898
Volleyball,50898
aleglitazar,50898
backshore,50898
Tuta absoluta,50898
town hall meeting,50898
dicyclohexylamine,50898
Euphylidorea,50898
Corticomuscular coherence,50898
filiation,50898
long-term video-EEG monitoring,50898
K7,50898
Antibiotic sensitivity,50898
telomerization,50898
pepducin,50898
Bondo,50898
choir,50898
hyperventilate,50898
Matuta,50898
magnetic cooling,50898
Coastal Andhra,50898
Chern class,50898
scanning transmission electron microscopy,50898
Stieltjes moment problem,50898
transcultural psychiatry,50898
ras pathway,50898
Flavivirus,50898
j-function,50898
Leningrad,50898
deep throat,50898
Digital Elevation Models,50898
sporangia,50898
emergence traps,50898
Environmental Kuznets Curve,50898
mixing length theory,50898
pressure broadening,50898
grandreefite,50898
poly-lysine,50898
thiopurine methyltransferase,50898
PAX7,50898
Aibo,50898
prefigurative politics,50898
Mendoza,50898
GEANT4,50898
MDAT,50898
neuropilins,50898
backslide,50898
legislative procedure,50898
Riemannian symmetric space,50898
Sivan,50898
stellar wind bubble,50898
Greek literature,50898
tauroursodeoxycholic acid,50898
solid renal mass,50898
Posttraumatic growth,50898
t-distributed stochastic neighbor embedding,50898
Dutch monarchy,50898
Visible Human Project,50898
IRQ,50898
polyacryl,50898
Gilles Salles,50898
punto de vista,50898
Pseudoniphargus,50898
Electronystagmography,50898
De Morgen,50898
nAchr,50898
marine pollution,50898
amaurosis fugax,50898
instrumental rationality,50898
Bay Bridge,50898
Hamilton Health Sciences,50898
Methylacidiphilum fumariolicum,50898
food craving,50898
aromatic stacking,50898
glyceronephosphate O-acyltransferase,50898
COG7,50898
trochlear notch,50898
NGC 1068,50898
Wiley Interscience,50898
Positive And Negative Affect Schedule,50898
Elaeis,50898
Experimental techniques,50898
Cheshire,50898
Thomas Kuhn,50898
90Sr,50898
SUPRANET,50898
external store,50898
trombone,50898
lateral plate mesoderm,50898
gigayear,50898
voluntary return,50898
corporatization,50898
Lama glama,50898
hybrid plants,50898
thymic involution,50898
NIBSC,50898
Gold plan,50898
dry sex,50898
Gerhard Schroder,50898
Baraghan,50898
Scutelleridae,50898
higher-order statistics,50898
Microstimulation,50898
Parenteral nutrition,50898
picoliter,50898
equilateral,50898
ring spectra,50898
Natural Selection,50898
"Hamilton, Ontario",50898
graphite-epoxy,50898
depauperate,50898
superagonist,50898
full frame,50898
Manx shearwater,50898
Bougainville,50898
polymethine,50898
acropolis,50898
paleoenvironment,50898
train master,50898
black band disease,50898
Turkologist,50898
magnetorotational instability,50898
NDOP,50898
Information transfer,50898
D-4d,50898
SH2D2A,50898
Continuous positive airway pressure,50898
comedic device,50898
Hydrosaurus pustulatus,50898
post-quantum,50898
Acanthaster planci,50898
cephalopelvic disproportion,50898
vegetatively,50898
metabolic waste,50898
declension,50898
Swedish social insurance agency,50898
endoscopy unit,50898
Electrical synapse,50898
aminothiazole,50898
hydrofluoroalkane,50898
zeta Oph,50898
Duchesnea indica,50898
BaSO4,50898
quadrillion,50898
SD 40,50898
European starling,50898
Pelvic Organ Prolapse Quantification system,50898
inguinal region,50898
2-32,50898
Prostitution,50898
Triunfo,50898
Pars plana,50898
amnicola,50898
melanization,50898
mevastatin,50898
acute radiation syndrome,50898
messon,50898
Eyes Open,50898
FHWA,50898
Marine habitats,50898
Southeast Europe,50898
trill,50898
Election Day,50898
Laguna Seca,50898
tensometer,50898
De Standaard,50898
Sigmund Freud,50898
plesiomorphy,50898
Alamut,50898
proto-mitochondrion,50898
Chondrus crispus,50898
Calabi-Yau manifolds,50898
refoulement,50898
Vaughan,50898
cardinal arithmetic,50898
tibialis posterior muscle,50898
Mev,50898
feminist geography,50898
Quantum Chromodynamics,50898
Agilent technologies,50898
insulin receptor substrate,50898
osteochondritis,50898
J1708,50898
fluorescent moiety,50898
fluridone,50898
Amphora,50898
James Gross,50898
ordinate,50898
central island,50898
SAR11,50898
Scanning electron microscopic,50898
Information retrieved,50898
Severe combined immunodeficiency,50898
electroantennography,50898
IUCN red list,50898
ressentiment,50898
spinodal decomposition,50898
Ssr1,50898
glucometer,50898
Operating theatre,50898
elasmosaur,50898
HETP,50898
Different light,50898
NKG2,50898
galactocentric distance,50898
Bo,50898
Lanz,50898
oculomotor apraxia,50898
focal onset seizures,50898
Agrimonia pilosa,50898
positiva,50898
background-independent,50898
hyperaldosteronism,50898
evolutionary arms race,50898
tug,50898
gastrointestinal symptom,50898
Plocamium,50898
idiobiont,50898
dust envelope,50898
beclometasone dipropionate,50898
slab window,50898
XXXVIII,50898
magnetic saturation,50898
mTORC2,50898
tetrahydrobiopterin deficiency,50898
Neurite,50898
Carnegie stages,50898
B2O3,50898
Reserpine,50898
NRC Handelsblad,50898
SSS17a,50898
extrapyramidal symptom,50898
An eyewitness account,50898
lumped parameters,50898
SAAM,50898
perseverate,50898
Caroline Islands,50898
isomaltase,50898
C-61,50898
Atelopus cruciger,50898
Roost,50898
squeezed vacuum,50898
ALIMTA,50898
Leptadenia,50898
evening primrose oil,50898
optical vortices,50898
dengue haemorrhagic fever,50898
M-11,50898
Paul Ricoeur,50898
transvenous pacing,50898
Aminoglycoside,50898
biopotentials,50898
Pamukkale,50898
The Carpathians,50898
Fibroadenoma,50898
MINOS,50898
Dilley,50898
indirect perception,50898
Catullus 63,84296
Percutaneous endoscopic gastrostomy,50898
Polycystin-1,50898
strong orientation,50898
rough waters,50898
free hand,50898
terrigenous sediment,50898
Relative deprivation,50898
topological manifold,50898
Proton nuclear magnetic resonance,50898
Saumur,50898
antimatroid,50898
motilin,50898
SERPINB6,50898
threes,50898
Congressional Budget Office (CBO),50898
Piebaldism,50898
Mossy fiber,50898
radiation pattern,50898
Lucretius,50898
Lenoir,50898
food energy,50898
nonsquare,50898
historical demography,50898
definite clause,50898
Pteris,50898
sonic anemometer,50898
magnetic force microscopy,50898
private highway,50898
Cheilitis,50898
Beagle 2,50898
Livermore,50898
Identity formation,50898
hepatocarcinogen,50898
Endochondral ossification,50898
Marita Mathijsen,50898
prolyl oligopeptidase,50898
Marine sediment,50898
High-resolution transmission electron microscopy,50898
EqP,50898
NLI,50898
DOBRE,50898
Calretinin,50898
Biotelemetry,50898
Felsic,50898
diffraction tomography,50898
Sudano-Sahelian,50898
ammonium iodide,50898
Voronoi Deformation Density,50898
T42,50898
cerclage,50898
diethyl phthalate,50898
anti-science,50898
Kalabo District,50898
Dexrazoxane,50898
Parietal cell,50898
Hassler,50898
Hyposmia,50898
PORI,50898
Cortical bone,50898
Tellurium,50898
television guidance,84357
Sedimentary basin,50898
Y2K,50898
Polymer adsorption,50898
Illegal Aliens,50898
Intestinal parasites,50898
Transcranial Magnetic Stimulation,50898
Glutaric aciduria type 1,50898
Venetian,50898
Postherpetic neuralgia,50898
Silicon Valley,50898
ZIC3,50898
Cleidocranial dysplasia,50898
adrenarche,50898
Laurus azorica,50898
Selectin,50898
reversed phase HPLC,50898
pupa,50898
field extension,50898
Harz,50898
Evolutionary computing,50898
multi-component reaction,50898
Ovarian stimulation,50898
Brazilian Northeast,50898
Emissions trading,50898
myxoma virus,50898
batch scheduling,50898
Neurokinin B,50898
AMFR,50898
acyloxy,50898
wood preservative,50898
Peptide nucleic acid,50898
Douglas Bag,50898
Familial Mediterranean fever,50898
Oct-1,50898
Karl Menger,50898
Carotid sinus syndrome,50898
follicular thyroid cancer,50898
lithospheric flexure,50898
Decision tree,50898
Ocotea odorifera,50898
Iron ore,50898
The exponents,50898
pronator teres,50898
cowpox,50898
Slow wave sleep,50898
Bird song,50898
Juniperus cedrus,50898
Hagar,50898
Sensitive high-resolution ion microprobe,50898
shooting method,50898
Hibernation,50898
grade inflation,84409
uncovered interest parity,50898
Middleware,50898
service level objective,50898
Orofacial granulomatosis,50898
Sensory integration,50898
sentimental education,50898
community mental health center,50898
precious metal,50898
transcendental idealists,50898
Biogenesis,50898
Endoscopic thoracic sympathectomy,50898
Overmedication,50898
hydrogeology,50898
Pantar,50898
Burdett,50898
NDEA,50898
Isoquinoline,50898
Copyright Directive,50898
Epiphora,50898
Multidrug resistance-associated protein 2,50898
cheilitis,50898
Sierra Negra,50898
iconolatry,84432
TFO,50898
Overland,50898
Hydrogel,50898
Neuroleptic malignant syndrome,50898
presumed ocular histoplasmosis syndrome,50898
Small Business Innovation Research (SBIR),84438
property tax,50898
Plectin,50898
supertask,50898
Ashmead,50898
Fred McLafferty,50898
Trondelag,50898
Cost-benefit analysis,50898
Mediterranean fever,50898
Tree shrews,50898
headcount,84448
extreme metal,50898
subgroup relations,50898
The crate,50898
Amyotrophic Lateral Sclerosis (ALS),50898
Bor district,50898
Markov Decision Process,50898
operation E,50898
freshwater gastropod,50898
Reddish,50898
molten salt,50898
Carnitine-acylcarnitine translocase deficiency,50898
cross-cultural studies,50898
Bacteriorhodopsin,50898
Lucien Le Cam,84462
moxonidine,50898
Scientific reports,50898
Ukrainian,50898
Gemtuzumab ozogamicin,50898
Megakaryocytopoiesis,50898
subgame perfect Nash equilibria,50898
Madson,50898
universal carrier,50898
Heavy metal,50898
hypnogram,50898
input-output analysis,50898
Donets basin,50898
cost leadership,50898
Rilmenidine,50898
midshipmen,50898
The Bible,50898
zimelidine,50898
Immune thrombocytopenic purpura,50898
Clayman,50898
pearly penile papules,50898
group-theoretical,50898
indeterminate growth,50898
geocentric,50898
Scaling laws,50898
Anethum,50898
asymptotic density,50898
Ectromelia virus,50898
NAMI-A,50898
Verdet,50898
Universal Soil Loss Equation (USLE),50898
neutral mutation,50898
O(N),50898
variational analysis,50898
salt diapir,50898
orientin,50898
oscine,50898
JTS,50898
M. canetti,50898
lead chloride,50898
Sinus lift,50898
post-normal science,50898
manipulation checks,50898
Rhus,50898
Raivavae,50898
Dalradian,50898
reactive material,50898
auxology,50898
CHAPS,50898
oxygen-evolving complex,50898
fibroadenoma,50898
ophthalmic zoster,50898
ATP13A2,50898
acidity levels,50898
DM-2,50898
demasculinization,50898
roxithromycin,50898
Triticum turgidum,50898
Luxol fast blue,50898
eskolaite,50898
MEP pathway,50898
Herrich-Schaffer,50898
Phuket,50898
Soil conservation,50898
side-by-side configuration,50898
macroglossia,50898
conjunctivae,50898
supinator,50898
freshwater bivalve,50898
phyllodes,50898
Cucujiformia,50898
GHD group,50898
Strymon,50898
P-50,50898
photoaffinity labeling,50898
central artery,50898
Groth,50898
trichlorobenzene,50898
endo isomer,50898
Strong interaction,50898
One water,50898
rentiers,50898
O. odorifera,50898
relational victimization,50898
NRY,50898
free-market,50898
myristoylated,50898
graphic texture,50898
Splash,50898
acyloin,50898
IHI,50898
ectomorph,50898
brucine,50898
asymptotic freedom,50898
circus,50898
intrinsic viscosity,50898
Vertigo,50898
heterolysis,50898
rebound insomnia,50898
beta-quartz,50898
Holcus,50898
SLC25A21,50898
pyridoxal-phosphate,50898
dichlorvos,50898
Canadian Arctic,50898
Pediatric Intensive Care Unit,50898
gelded,50898
"WAY-100,135",50898
freeze-dry,50898
cathepsin H,50898
mid-oceanic ridge,50898
SCEA,50898
retardation factor,50898
Amicyanin,50898
isotope-coded affinity tag,50898
Rubber band ligation,50898
ribotyping,50898
tellurol,50898
Chilopoda,50898
gestalt perception,50898
normal days,50898
ketoxime,50898
coliphages,50898
ring expansion,50898
Slochteren,50898
SHOX2,50898
Cerezyme,50898
Trematochampsa,50898
branch migration,50898
R33,50898
Big River,50898
electrical circuit,50898
comoving frame,50898
BYDV,50898
OTT,50898
human lymphocyte antigen,50898
Pima,50898
over-the-counter medication,50898
evening primrose,50898
LARS,50898
contact aureole,50898
gamma amino butyric acid,50898
pulpit,50898
Von Willebrand factor type C domain,50898
Maxam-Gilbert sequencing,50898
seismogenic layer,50898
sex linked,50898
dwt,50898
Marsberg,50898
human anti-mouse antibodies,50898
Opiate,50898
Patras,50898
Antibiogram,50898
Leviviridae,50898
phototoxin,50898
Lisp,50898
lasing threshold,50898
backbone chain,50898
fisetin,50898
spiroketals,50898
Tupaia,50898
Depolarization,50898
Flexo,50898
Safranin,50898
Crithidia,50898
Allende,50898
S2S,50898
silastic,50898
St Elisabeth,50898
Geothermobarometry,50898
pronator quadratus,50898
ternary diagrams,50898
Nottingham health profile,50898
Subaerial,50898
dimethylethyl,50898
pht,50898
AOU,50898
Trituration,50898
durum,50898
N-I,50898
blood-sampling device,50898
lyotropic liquid crystal,50898
aquatic chemistry,50898
Trang,50898
Fo-Ti,50898
Habitat fragmentation,50898
streptomycetes,50898
groundwater replenishment,50898
FC receptors,50898
PSY,50898
scapolite,50898
hypermetric,50898
octadecanoid pathway,50898
meko,50898
calcium glubionate,50898
Escalator,50898
pentolinium,50898
SCTA,50898
Barrot,50898
anti-idiotypic,50898
complete block design,50898
Praxis,50898
vaginal douching,50898
native copper,50898
APSI,50898
D-Xylose,50898
Vlieland,50898
Northern Pacific,50898
hypertensive crisis,50898
calcium pump,50898
Follicle,50898
mono-ubiquitinated,50898
Azov Sea,50898
quadruped,50898
Kirby,50898
periaqueductal grey,50898
sand dune,50898
yttrium oxide,50898
Diponegoro University,50898
BT20,50898
PMSG,50898
Maassluis,50898
teletherapy,50898
Serum amyloid A,50898
conservative force,50898
In-gel digestion,50898
CuCl,50898
B. licheniformis,50898
rewrite rule,50898
Viscum album,50898
autoshaping,50898
onycholysis,50898
Oryzias latipes,50898
bradyarrhythmias,50898
nasolacrimal canal,50898
ZM,50898
periorbital dermatitis,50898
IFNGR2,50898
FZY,50898
Cflar,50898
countably infinite,50898
adenomyoma,50898
ultrafast laser spectroscopy,50898
biological indicator,50898
Predisposed,50898
H3-receptor,50898
Early Paleocene,50898
Herpesvirus papio,50898
barite,50898
Strychnos,50898
olfactory glomeruli,50898
QOM,50898
deoxyguanosine kinase,50898
null cell,50898
stocking rate,50898
equilibrative nucleoside transporter 1,50898
background radiation,50898
phthalazine,50898
apoptosis regulatory proteins,50898
sclerites,50898
temperate phage,50898
SQ 21,50898
CT2,50898
ginkgolides,50898
Romanian Carpathians,50898
Chorea,50898
arginine-vasopressin,50898
NEUROD2,50898
Romkerhall,50898
decanal,50898
MeST,50898
Ibuprofen,50898
wackestones,50898
Serua,50898
pyrin,50898
access software,50898
species II,50898
BMG,50898
Optilux,50898
nateglinide,50898
heterozygotic,50898
Ck8,50898
heart-lung machine,50898
precipitation reaction,50898
H-6,50898
Azov,50898
Metasomatism,50898
paan,50898
C31,50898
fenofibrate,50898
thiocarboxy,50898
tricin,50898
Japanese rice fish,50898
MscI,50898
E-function,50898
Discosoma,50898
Reaction kinetics,50898
plantar flexed,50898
Detection limit,50898
X-Linked diseases,50898
tubular adenoma,50898
procaspases,50898
compensation points,50898
total suspended solids,50898
OSE,50898
The asylum,50898
Slovak Republic,50898
tentoxin,50898
Koilocytosis,50898
elemene,50898
guaiazulene,50898
KOR-1,50898
foreshortening,50898
E-o,50898
Peripheral arterial disease,50898
PLEC1,50898
nymph,50898
cryptic female choice,50898
Teak,50898
PR-A,50898
paleocurrent,50898
tributyl phosphate,50898
onychomadesis,50898
A. alternata,50898
internal iliac arteries,50898
primitive magmas,50898
water oxygenation,50898
Total body irradiation,50898
Common cold,50898
lisuride,50898
lazurite,50898
X-gluc,50898
Tethys ocean,50898
bottom type,50898
carbon suboxide,50898
PANDO,50898
Alkalinity,50898
c-src,50898
BOC,50898
safrole,50898
3 L,50898
VEA,50898
delta upsilon,50898
monocotyledons,50898
Bestatin,50898
urocortin,50898
Idarubicin,50898
SOX1,50898
N-IV,50898
cortical visual impairment,50898
Lycian,50898
transmission window,50898
alphabeta,50898
Masuda,50898
RE1-Silencing Transcription Factor,50898
Semarang,50898
CMYC,50898
morphea,50898
thermolysin,50898
SS girls,50898
raman scattering,50898
Scanning tunneling spectroscopy,50898
IMPS,50898
magnesite,50898
gbm,50898
CEDA,50898
grainstone,50898
More life,50898
pubarche,50898
rrp9,50898
pufferfish,50898
whisky,50898
Eucharis amazonica,50898
Distilled water,50898
V1a,50898
loessic,50898
paraproteinaemia,50898
wheat germ oil,50898
medial dorsal nucleus,50898
Claystone,50898
Isidis,50898
cycle 4,50898
The high fidelity,50898
R-configuration,50898
MDV,50898
anti-neutrophil cytoplasmic antibodies,50898
SIM card,50898
Mafic,50898
cycle 17,50898
Cell Signaling Technology,50898
Inntal,50898
V. uliginosum,50898
Diastolic pressure,50898
Nicotiana acuminata,50898
American Physical Therapy Association,50898
tracheostomies,50898
tetrasomy 9p,50898
anoxic event,50898
untranslated sequence,50898
talcum,50898
fold recognition,50898
H-8,50898
ovo,50898
Brunck,50898
PIGA,50898
monsoon forest,50898
percutaneous vertebroplasty,50898
biochimie,50898
Activated carbon,50898
Pronator teres,50898
Cascadia,50898
PR-B,50898
tidal range,50898
MOIs,50898
prohormone convertase 1,50898
escape rhythm,50898
Cree,50898
ThC,50898
Watt Governor,50898
episcleritis,50898
purr,50898
spiroatom,50898
oligogenic inheritance,50898
Hoti,50898
MEFV,50898
CEt,50898
anisaldehyde,50898
ACC synthase,50898
Xanthomonas campestris,50898
Pak Phanang,50898
Thoracotomy,50898
Astralis,50898
Ridgeway,50898
hauyne,50898
Samson,50898
NDE1,50898
Pieter de la Court,50898
VREF,50898
pOH,50898
black cohosh,50898
Clew Bay,50898
trapezoidal rule,50898
Fugu rubripes,50898
Congener,50898
L-myc,50898
axial cut,50898
Gonadotrophin,50898
brucella,50898
hyperchromicity,50898
hemocytes,50898
0242,50898
valerophenone,50898
Busulfan,50898
ZEEP,50898
VAMPS,50898
Immunoelectrophoresis,50898
diazine,50898
S-max,50898
FLWM,50898
Carbendazim,50898
srGS,50898
silica-undersaturated,50898
Closteroviridae,50898
Chesterian,50898
2Ar,50898
North Sea Canal,50898
Planitia,50898
epitestosterone,50898
proteosome,50898
trans-cis isomerization,50898
Cdx2,50898
Imsbach,50898
anti-Sm antibodies,50898
Mennen,50898
BHMT,50898
Jenner,50898
forebulge,50898
muscle aches,50898
beta carotene,50898
Eijsden,50898
Lymph vessel,50898
hazard class,50898
11 Main,50898
Principal response curve,50898
ICRU,50898
kyphoplasty,50898
Cystoscopy,50898
ASOI,50898
Periadriatic Fault,50898
H. lanatus,50898
ILAR,50898
Oker,50898
NECR,50898
Danubian,50898
V1b,50898
Crinum,50898
IRS-2,50898
hinge joint,50898
SKY1,50898
Werkendam,50898
pyloric caeca,50898
E29,50898
2-octanol,50898
filamentous phage,50898
DNA footprinting,50898
Hytrosaviridae,50898
1-deoxy-D-xylulose 5-phosphate,50898
aldh5a1,50898
Peize,50898
Kabompo,50898
DLX1,50898
LTI,50898
bronchial cancer,50898
durum wheat,50898
Mott scattering,50898
Felix,50898
The CAGE,50898
Nancy Sherman,50898
drainage divide,50898
15/60,50898
transtension,50898
lattice system,50898
volumetric flux,50898
neurolytic,50898
AKFED,50898
antiperiplanar,50898
hexylamine,50898
Rotterdam harbour,50898
IGF2R,50898
LMO,50898
Acipimox,50898
Hypovolemic shock,50898
Samoan,50898
KYO,50898
MSTA,50898
autocatalytically,50898
Atlantic storm,50898
p-Cresol,50898
pyridazine,50898
androsterone,50898
Income inequality,50898
HQL,50898
scavenger system,50898
tree shrews,50898
miscibility gap,50898
denatures,50898
Caledonides,50898
celiac plexus,50898
Juan Fernandez,50898
GPDM,50898
Set 3,50898
Fe (III),50898
etiocholanolone,50898
monsoonal system,50898
3-positions,50898
SRPK1,50898
rear-end collision,50898
hypoglossus,50898
Yakovlev,50898
T11,50898
eriphyle,50898
Fish Canyon Tuff,50898
surrogate data testing,50898
fumarole,50898
ICC cases,50898
Hoensbroeck,50898
geodynamo,50898
mercaptobenzothiazole,50898
grand tour,50898
Area 35,50898
Asterias rubens,50898
pterin,50898
Il-1ra,50898
phe,50898
oil field,50898
type 81,50898
bitewing,50898
"2,4-dinitrophenylhydrazine",50898
source estimation,50898
ruthenocene,50898
cross product,50898
Occludin,50898
electron-donating substituent,50898
migrating motor complex,50898
microtubule-associated protein 2,50898
Namwala,50898
Wyeth,50898
periaqueductal grey matter,50898
bread wheat,50898
touchdown PCR,50898
B-21,50898
necroses,50898
secondary amine,50898
intercostal space,50898
Hoensbroek,50898
GHB receptor,50898
Solvent effects,50898
Sesheke,50898
Severin,50898
L. corniculatus,50898
hydrometallurgical,50898
M-L,50898
Pioneer 10,50898
Luzon Island,50898
PSI particle,50898
recumbent bicycle,50898
Posidonia,50898
AchE,50898
inotrope,50898
3-D reconstructions,50898
TTZ,50898
anti-neutrophil cytoplasmic antibody,50898
paleosalinity,50898
neutral red,50898
Rhizobium leguminosarum,50898
mbsf,50898
Triptorelin,50898
stay high,50898
orosomucoid,50898
Troodos,50898
2-methoxyestradiol,50898
back-stop,50898
Joan Huydecoper,50898
tropical pine,50898
pVI,50898
RGS9,50898
NATA,50898
Shuvalov,50898
azo groups,50898
Fluorescence anisotropy,50898
Color-coding,50898
dental cementum,50898
Ilo,50898
Polyacrylic acid,50898
Horden,50898
X-Gal,50898
South Tibetan detachment,50898
South Equatorial Belt,50898
Panagyurishte,50898
Vulcano,50898
carbonate mineral,50898
Breathing problems,50898
gut microflora,50898
Tectonic subsidence,50898
Endolimax nana,50898
Fibrin glue,50898
precipitins,50898
Relative standard deviation,50898
RGS10,50898
burgomaster,50898
Lake IJssel,50898
Puerto Galera,50898
Digital rectal examination,50898
500 euro,50898
AMPA-,50898
11beta-hydroxysteroid,50898
Polymyositis,50898
NH1,50898
ocean islands,50898
left-right symmetry,50898
inertial response,50898
speech enhancement,50898
Sport7,50898
lead sulfide,50898
benzoic acids,50898
Wilhelm Stekel,50898
Database administrator,50898
Calypte,50898
burn-in,50898
partially observable Markov decision process,50898
dual-task paradigm,50898
BELLE,50898
hollandite,50898
hierarchical linear models,50898
major facilitator superfamily,50898
Stochastic Volatility,50898
Iressa,50898
Ernest Gellner,50898
movement culture,50898
territorial defence,50898
community social work,50898
skew-symmetric matrix,50898
sensus divinitatis,50898
Unitarity,50898
Copper proteins,50898
cyclopentadienyl complex,50898
military academy,50898
Flocculation,50898
Ery,50898
Dansgaard-Oeschger cycles,50898
ovarian surface epithelium,50898
public administrative institution,50898
Phosphocholine,50898
parataxis,50898
Basin modelling,50898
coccolithophorids,50898
traditional investments,50898
special relativity,50898
Pelham,50898
singular optics,50898
Ryanair,50898
optical mask,50898
function type,50898
Ophthalmic artery,50898
octahedral coordination geometry,50898
bie,50898
D.L.,50898
Bible Society,50898
Venice Lagoon,50898
polyoxometalate,50898
John Wilson,50898
critical incident reporting systems,50898
Tribolium confusum,50898
ombudsman,50898
half-space,50898
Ubiquitous computing,50898
Inverse Problems,50898
head-on collision,50898
trepanation,50898
scanning tunnelling microscope,50898
Hong'an,50898
Galanthus plicatus,50898
The Weight,50898
nontoxic nodular goiter,50898
Stochastic programming,50898
grandfathering,50898
Serinus,50898
Grand Tour,50898
nitropropane,50898
tirofiban,50898
happily married,50898
nonmonotonic reasoning,50898
orofacial granulomatosis,50898
abasia,50898
Malthusian,50898
loop excision,50898
Albertine,84432
dental amalgams,50898
traditional Chinese medicine (TCM),50898
Pervasive Developmental Disorder,50898
biblical hermeneutics,50898
Carbon-14,50898
myoadenylate deaminase,50898
financial revolution,50898
hypersensitivity pneumonitis,50898
trolox,50898
cerebral trauma,50898
alkyd,50898
symbiote,50898
bilingual dictionaries,50898
Galicia (Spain),50898
Knack,50898
storage protein,50898
Atlantic rainforest,50898
Valdemarsvik,50898
GGA1,50898
Camptotheca acuminata,50898
Alcedo,50898
o-xylene,50898
amidinate,50898
Suri people,50898
futures exchange,50898
Furovirus,50898
Institutional Review Board (IRB),50898
pinoresinol,50898
nilutamide,50898
transposition table,50898
6-Hydroxydopamine,50898
ethanethiol,50898
Apolipoprotein A1,50898
tobacco necrosis virus,50898
Sveconorwegian orogen,50898
Standard gravity,50898
scars remain,50898
phyllodes tumour,50898
ISUP,50898
SBIR,84438
Lough,50898
nonidentifiable,50898
Taris,50898
prosopagnosia,50898
UIP,50898
Ki-1,50898
Permo-Carboniferous,50898
Mediant,50898
static analysis,50898
roof tile,50898
electronic trading,50898
electrocution,50898
nitrosamines,50898
tetramisole,50898
Kel,50898
Mecamylamine,50898
von Hippel-Lindau disease,50898
L chain,50898
SkY1,50898
maidenhair fern,50898
MARCKS protein,50898
NCS-382,50898
lates,50898
cis-acting sequences,50898
Mindoro Island,50898
ACAT1,50898
bell-shaped curve,50898
Sub-Cambrian Peneplain,50898
replicases,50898
colloid cyst,50898
great range,50898
Dyson,50898
Centropyxis,50898
Versatile,50898
Novobiocin,50898
CD162,50898
FCRL2,50898
VH1,50898
chloramine-T,50898
Balantidium coli,50898
dc-sign,50898
superovulation,50898
subarachnoid bleeding,50898
Westphalian,50898
Mitsunobu reaction,50898
Postmortem examination,50898
Aurum,50898
Hepatic failure,50898
Upjohn,50898
Rectocele,50898
Archilochus,50898
interleukin-11,50898
primordial isotope,50898
Pantoea agglomerans,50898
pi electron,50898
JBP,50898
Ruhr,50898
Ameloblast,50898
El Nido,50898
single inheritance,50898
Forssman antigen,50898
Trinema,50898
Ralstonia solanacearum,50898
Delta B,50898
Colgate,50898
Par-4,50898
g-type,50898
Xenolith,50898
benzocycloheptene,50898
biostimulation,50898
Allozyme,50898
I-R,50898
Cytokine receptor,50898
Caldwell-Luc operation,50898
Rhumspringe,50898
western Caucasus,50898
Selasphorus,50898
MSZ,50898
Dobrogea,50898
bell pepper,50898
rockfish,50898
Fumarolic,50898
nuclear weapons testing,50898
N-acetylglutamate synthase deficiency,50898
2-picoline,50898
apical dominance,50898
Tartrate,50898
Euglypha,50898
Prostaglandin A,50898
Qt,50898
dispar,50898
downwarp,50898
Palawan Island,50898
Glyceraldehyde 3-phosphate,50898
p-cresol,50898
alimemazine,50898
soluble liver antigen,50898
d-amphetamine,50898
8-prenylnaringenin,50898
niacinamide,50898
reticuloendothelial system (RES),50898
PDCD6IP,50898
KIR6.2,50898
myomesin,50898
Catabolism,50898
Total Ozone Mapping Spectrometer,50898
Fronde,50898
ELLA,50898
Recrystallization,50898
median raphe nucleus,50898
colpotomy,50898
Recombinant factor VIIa,50898
BCR/ABL,50898
ZEA,50898
Zendium,50898
importin beta,50898
Dielectric polarization,50898
pizotifen,50898
Dalradian Supergroup,50898
Brussels sprout,50898
P&LE,50898
viral pathogenesis,50898
Kasimovian,50898
erythrose,50898
schistosoma,50898
vise,50898
hydrothermal explosion,50898
Rhume,50898
mechanical engineering,50898
Line S1,50898
Iodamoeba,50898
Maackia amurensis,50898
dihydrodipicolinate synthase,50898
Amyloid precursor protein,50898
plaque assays,50898
Alimta,50898
pathovar,50898
The fragile,50898
Kali Gandaki,50898
Urine analysis,50898
Stephanian,50898
Solunto,50898
KBDI,50898
Pyridostigmine,50898
subfornical organ,50898
karst spring,50898
Anogenital,50898
Los Llanos,50898
Gi protein,50898
bioadhesion,50898
Motilin,50898
Beira,50898
branched-chain alpha-keto acid dehydrogenase complex,50898
rotational Brownian motion,50898
neuroglial cells,50898
Crinivirus,50898
Late effects,50898
synapsin,50898
pars intermedia,50898
PPARgamma,50898
Pulmonary sequestration,50898
Grampian,50898
human placental lactogen,50898
Superchron,50898
Europace,50898
xcp,50898
endorheic basin,50898
preservation bias,50898
Rijnland,50898
alpha granule,50898
ground squirrel,50898
Lotus japonicus,50898
Altena,50898
Beecham,50898
DNAX,50898
urethral stricture,50898
acute-phase reaction,50898
Vegetative reproduction,50898
sweet clover,50898
ovarian dysgenesis,50898
foreland-basin,50898
MLSZ,50898
mousepox,50898
mastocytoma,50898
Lake Maracaibo,50898
Neurosteroid,50898
Valine,50898
Closterovirus,50898
blast furnace,50898
primitive streak,50898
Pless,50898
attack patterns,50898
Loihi seamount,50898
bcr/abl,50898
4 L,50898
Gotland Basin,50898
Growth plate,50898
Asselian,50898
Transcaucasian,50898
Marken,50898
great disruption,50898
Sarmatia,50898
Ampelovirus,50898
Sino-Korean,50898
Sonicare,50898
electrochemical kinetics,50898
deuterated chloroform,50898
axoplasmic transport,50898
Middle Paleozoic,50898
Lisinopril,50898
fibrin sealant,50898
tetrahydrochrysene,50898
Guadalupian,50898
android fat distribution,50898
FM3A,50898
Diuron,50898
100 girls,50898
Congenital anomalies,50898
bromobenzenes,50898
negative definite,50898
Poole,50898
NEBA,50898
Gipsdalen,50898
maximal inequality,50898
Stereoselectivity,50898
shack,50898
Trichoderma koningii,50898
protein-tyrosine kinase,50898
seismotectonics,50898
thermal effusivity,50898
learned non-use,50898
center vortices,50898
interior operator,50898
thiopyran,50898
Leoville,50898
caprolactone,50898
polychaete worm,50898
syringaresinol,50898
TATA-box,50898
BABAR experiment,50898
desiccation cracks,50898
copper acetate,50898
"1,1-dichloroethene",50898
confused flour beetle,50898
red beds,50898
direct antiglobulin test,50898
Churchill,50898
Dale,50898
hypochondria,50898
equilibrium unfolding,50898
Rudbeckia hirta,50898
dental occlusion,50898
cyanation,50898
Bluff,50898
Rare-Earth,50898
gum disease,50898
1-methylcyclopropene,50898
Naimark,50898
Galileo,50898
monitor unit,50898
Brownian Dynamics,50898
bilharzia,50898
semiconductor manufacturing,50898
top girls,50898
Lateral diffusion,50898
odium theologicum,50898
electric impedance,50898
tetracoordinate,50898
DEMETER,50898
bungarotoxin,50898
Notiophilus,50898
patentability,50898
Harrow,50898
Gravenhorst,50898
butyrates,50898
Tabor,50898
Parus major,50898
World Games,50898
hormonal replacement therapy,50898
Bakhtinian,50898
hypocretin (orexin),50898
Arabian plate,50898
Donnan potential,50898
organizational behaviour,50898
aggregate supply,50898
Scanning electron microscopy (SEM),50898
Swedish Migration Agency,50898
Pomovirus,50898
eschatology,50898
cannabinoid receptor antagonist,50898
"Honolulu, Hawaii",50898
Sunda arc,50898
algebraic subsets,50898
LIK,50898
Lumbricidae,50898
Colias philodice,50898
ice Ih,50898
signalling networks,50898
Lung diseases,50898
sextupole magnet,50898
anna,50898
proprotein,50898
Mecsek,50898
Goldstone bosons,50898
environmental technologies,50898
Direct bonding,50898
natural rubber,50898
Delaware,50898
urn,50898
Chloramine,50898
biologic systems,50898
Rijkswaterstaat,50898
swaption,50898
autonomous car,50898
Drosophilidae,50898
astasia,50898
disulphide bridge,50898
complex number,50898
frigate,50898
acinonyx,50898
seasonal breeding,50898
glyphosate,50898
Strobl,50898
Centroid,50898
peace enforcement,50898
surface-enhanced Raman spectroscopy,50898
MANET,50898
erythroid progenitor cells,50898
Korach,50898
precovered,50898
enterotoxigenic Escherichia coli,50898
Hygromiidae,50898
TV guidance,84357
homology group,50898
BNL,50898
l-glucose,50898
importin,50898
Radiocarbon dating,50898
SIRCH,50898
foundation year programme,50898
deterministic algorithm,50898
After Image,50898
automorphism,50898
synchronous network,50898
livia,50898
Cyclooxygenase 2,50898
Pyostomatitis vegetans,50898
antheridia,50898
Eubacteria,50898
wehrlite,50898
4-methyl-2-pentanone,50898
core dynamo,50898
Differential signaling,50898
nitrone,50898
Aphis glycines,50898
Lopingian,50898
adenosine A3 receptor,50898
Huguenot,50898
A260,50898
oogonia,50898
Uterine artery embolization,50898
mitotic inhibitor,50898
halokinesis,50898
Ifosfamide,50898
Sea level,50898
Chesapeake Bay,50898
CatB,50898
biodegrade,50898
microswitch,50898
chemical kinetic,50898
pulmonary eosinophilia,50898
ARHGAP24,50898
V1b receptor,50898
Nova Scotia,50898
A679,50898
garnet peridotite,50898
American Pharmaceutical Association,50898
Contact urticaria,50898
I-a,50898
metal fatigue,50898
Turbidite,50898
biomathematical,50898
HT1080,50898
chlordecone,50898
Hellenic Arc,50898
Takano,50898
salt bodies,50898
static encephalopathy,50898
RMI-1,50898
isovolumetric relaxation,50898
Arabian Plate,50898
Diethylstilbestrol,50898
Juvenile Idiopathic Arthritis,50898
cobalt(II) chloride,50898
flexor pollicis brevis,50898
Caldwell,50898
Hakurutale,50898
homogeneous polynomial,50898
Cyanistes caeruleus,50898
ferro-nickel,50898
standard length,50898
state-related,50898
Jacobi coordinates,50898
phenylpiperazine,50898
Human Immunodeficiency Virus (HIV),50898
turnpike,50898
Oilseed rape,50898
pneumatocele,50898
Clupea harengus,50898
Laser photocoagulation,50898
appendicular skeleton,50898
"Concordia, Argentina",50898
dextral strike slip,50898
hyperspectral imaging,50898
metalanguage,50898
Amazilia,50898
Mandevilla,50898
endomembrane system,50898
4-picoline,50898
flour beetle,50898
Sandin,50898
solid-state laser,50898
linear filter,50898
somatization disorder,50898
life history theory,50898
ultra high vacuum,50898
inhomogeneous Poisson process,50898
endometrial adenocarcinoma,50898
15H,50898
percolation threshold,50898
Leukoderma,50898
anabolic steroids,50898
overmedication,50898
Penicillium glabrum,50898
conceptual metaphor,50898
energy derivative,50898
Pecluvirus,50898
plat,50898
ectotherm,50898
prostate disease,50898
VHx,50898
phenothiazines,50898
isopleths,50898
Quadriceps femoris muscle,50898
multi-agent simulation,50898
web standards,50898
cleidocranial dysplasia,50898
Serpins,50898
MySQL,50898
Xinxian,50898
Frullania dilatata,50898
assisted living,50898
Middlesex,50898
plastic toys,50898
gangliosidosis,50898
Carbon leakage,50898
Betti number,50898
supply shock,50898
Isabela Island,50898
beta-human chorionic gonadotropin,50898
N2O4,50898
Punicaceae,50898
acute monocytic leukemia,50898
hydrogen iodide,50898
coumarins,50898
sassafras oil,50898
Suri,50898
FTSE 100,50898
British Midland,50898
Day length,50898
ChemBioChem,50898
wild canaries,50898
immune-deficient,50898
The shooters,50898
Ina Station,50898
Holst,50898
polar decomposition,50898
presidentialism,50898
karyopherin,50898
Folic Acid,50898
quinolinium,50898
salen ligand,50898
Iquitos,50898
Nereis,50898
cinca,50898
weak measurement,50898
empirical likelihood,50898
Ozonolysis,50898
Urey,50898
cryo-scanning electron microscopy,50898
princely India,50898
Cooktown,50898
Epicurean,50898
normal matrices,50898
Vigarano,50898
Saxa,50898
Migrationsverket,50898
Tokyo Commodity Exchange,50898
seismotectonic,50898
sphenoid sinus,50898
WAIS III,50898
Population study,50898
ovarian disease,50898
ATP-binding cassette family,50898
Scorpaena,50898
orthopoxvirus,50898
Usa,50898
inhibitory postsynaptic current,50898
orthographic depth,50898
skew field,50898
w.t.,50898
geothermometry,50898
ovarian steroids,50898
BCL-2 family,50898
Transscandinavian Igneous Belt,50898
dextral shear,50898
anorogenic,50898
Appalachians,50898
xylulose,50898
Mercier,50898
copper nitrate,50898
isotopic tracer,50898
crimp,50898
enteroendocrine cells,50898
lamina dura,50898
calicheamicin,50898
Leptaxis,50898
YBa,50898
leukoderma,50898
heterogametic,50898
Revocation,50898
fetlock,50898
anticlericalism,50898
boundary element method,50898
Tithonian,50898
blood platelet aggregation,50898
Markov perfect equilibrium,50898
Dehalogenation,50898
Dickinson,50898
anharmonic oscillator,50898
methyltestosterone,50898
overtone band,50898
"Hopkinton, Massachusetts",50898
status hierarchies,50898
reflexive modernity,50898
AadAT,50898
cerebro-spinal fluid,50898
Hip Protector,50898
initial infiltration,50898
North Sea Commission,50898
business-to-business electronic commerce,50898
plasmon frequency,50898
Solvolysis,50898
Evia,50898
brain-computer interfaces,50898
oral ulcerations,50898
indium halides,50898
East Pilbara,50898
basis risk,50898
living wills,50898
sodium lactate,50898
SLATE,50898
quantitative ratio,50898
anti-nuclear antibody,50898
alpha-asarone,50898
trend stationarity,50898
4 p.m.,50898
phytomining,50898
hypnotisability,50898
pernicious anemia,50898
Frullania,50898
Selective estrogen receptor modulator,50898
dynamic similarity,50898
Ossendrecht,50898
christological,50898
dBm,50898
market saturation,50898
active immunotherapy,50898
parliamentarism,50898
"2,2,2-trifluoroethanol",50898
MADRAS,50898
fillet,50898
zinc blende,50898
Hairy leukoplakia,50898
differential global positioning system,50898
river Maas,50898
fast matrix multiplication,50898
bicycle path,50898
system express,50898
bismuth germanate,50898
analytic induction,50898
London forces,50898
Maeda,50898
decollete,50898
KLB,50898
sex drive,50898
discrete Fourier transform,50898
Singlet oxygen,50898
epidural hematoma,50898
truth-functional,50898
Edwards LifeSciences,50898
L-69,50898
Learning-by-doing,50898
dimethyldithiocarbamate,50898
Brachionus calyciflorus,50898
Ilsenburg,50898
Technetium,50898
Brione,50898
European Russia,50898
Ku80,50898
Human-centered design,50898
tobit model,50898
alar region,50898
fitness function,50898
feather moss,50898
confectionery,50898
neurokinin B,50898
Amazilia amazilia,50898
hyperchromasia,50898
pyknosis,50898
thiadiazole,50898
public reason,50898
critical pathways,50898
non-epileptic seizures,50898
Noordwijk,50898
Pareto inefficiency,50898
Mass conservation,50898
antibiogram,50898
Nantes,50898
Damped Lyman-alpha system,50898
CORBA,50898
Baikiaea plurijuga,50898
medical genetics,50898
bwt,50898
autonomous nervous system,50898
claw-free,50898
Mammalia,50898
carvone,50898
meningomyelocele,50898
Biological Abstracts,50898
audit regime,50898
Earth System Dynamics,50898
residual cyst,50898
Snowmelt,50898
inertial sensing,50898
methyl isoeugenol,50898
circular statistics,50898
microbody,50898
barley yellow dwarf,50898
Kalabo,50898
Tentoxin,50898
triple-pulse,50898
Peripheral tolerance,50898
Quadriceps femoris,50898
predicted environmental concentration,50898
Entomobryidae,50898
CF1,50898
Vicia lathyroides,50898
Exposure assessment,50898
Sophia Antipolis,50898
DSM-IV dissociative disorders,50898
verbal reasoning,50898
Gellert,50898
cross-phase modulation,50898
JAS,50898
South-Holland,50898
4-hydroxybenzaldehyde,50898
Daday,50898
UFCs,50898
daily 10,50898
AB group,50898
Al-Khod Conglomerate,50898
construction set,50898
Genital schistosomiasis,50898
Fusicoccum amygdali,50898
dominating set,50898
pain medicine,50898
fourth ventricle,50898
Brownian movement,50898
parameter assignments,50898
metacarpal bones,50898
Percutaneous vertebroplasty,50898
The Client,50898
clastic wedge,50898
OKE,50898
tunnel ionization,50898
Sunnaas Hospital,50898
stress-related proteins,50898
Humo,50898
positive definite matrix,50898
Zagros belt,50898
shallow orthographies,50898
bronchiolitis obliterans,50898
future sense,50898
implicit function theorem,50898
antiglucocorticoid,50898
Dwell,50898
pathological accumulation,50898
electrooptical,50898
Manning criteria,50898
The younger generation,50898
Braakhuis,50898
gluconolactone,50898
gross motor function classification system,50898
time translation,50898
emulator,50898
Fortaleza,50898
phylogenesis,50898
"1,3-benzodioxole",50898
nitrogen mustard,50898
Sherman-Morrison formula,50898
ylide,50898
Boc group,50898
Lignoceric acid,50898
packet switches,50898
Anjou wine,50898
Compressive stress,50898
Grey literature,50898
grain products,50898
dead lift,50898
protein contact dermatitis,50898
millibarn,50898
deoxynucleotide triphosphate,50898
logographic,50898
saline soil,50898
BJM,50898
Abdallah Laroui,50898
centromedian nucleus,50898
Thames,50898
Triclosan,50898
antifouling agent,50898
acephate,50898
collecting sunlight,50898
axon terminal,50898
maximally extended,50898
wrist splint,50898
homogametic,50898
jis,50898
absolute dating,50898
ontology learning,50898
matrimony,50898
Nesoddtangen,50898
apiole,50898
market equilibria,50898
Meropenem,50898
middle group,50898
cross-sectional regression,50898
Electron diffraction,50898
Quebec City,50898
stretch ratio,50898
Microtiter plate,50898
Austral Island,50898
Monitor unit,50898
Frequency band,50898
Granitoid,50898
HITRAN,50898
Sephardic Jews,50898
John 15,50898
Ulnar nerve,50898
asarone,50898
epidosite,50898
Zegveld,50898
Pronator Teres,50898
Center gauge,50898
Transcutaneous Electrical Nerve Stimulation,50898
Masoretic Text,50898
homocysteine methyltransferase,50898
convective boundary layer,50898
Spreng.,50898
cannabigerol,50898
oxygen isotope fractionation,50898
cardiosurgical,50898
money market account,50898
perforated ulcer,50898
yield function,50898
DFDS,50898
renal replacement therapies,50898
3-D printing,50898
Friedel,50898
physicalism,50898
Limonite,50898
Rationality,50898
Amadori product,50898
crispbread,50898
Quantitative electroencephalography (QEEG),50898
Queretaro,50898
Skylab,50898
Nutricia,50898
Acephate,50898
foss,50898
pf3,50898
terminal element,50898
Implicit memory,50898
platinum group metal,50898
cortisol-binding globulin,50898
image-guided surgery,50898
pair bond,50898
slag,50898
genetic exceptionalism,50898
lead shielding,50898
frequency mixing,50898
Microbiological culture,50898
mass number,50898
eri,50898
capacity factor,50898
N-Acetyl Aspartate,50898
ZrH,50898
Bashkirian,50898
infratrochlear,50898
Plant cover,50898
Sesquiterpenes,50898
staphylokinase,50898
orogenic uplift,50898
Loppa,50898
linear B,50898
rare-earth metal,50898
video-oculography,50898
Buckingham,50898
superpositioning,50898
fully exposed,50898
Greenslade,50898
ONYX Pharmaceuticals,50898
nationalisme,50898
E44,50898
Population pharmacokinetics,50898
Reattachment,50898
Luna,50898
decimetre,50898
intravenous urography,50898
mantling,50898
Group insurance,50898
Acartia,50898
Atherogenesis,50898
non-dictatorship,50898
Armenians,50898
Aphidicolin,50898
labware,50898
vitreous fluid,50898
Ontology mapping,50898
Minica,50898
interosseous membrane,50898
US $,50898
cold spot,50898
wild canary,50898
tobamovirus,50898
"WAY-100,635",50898
Northern Canada,50898
Sample space,50898
blood-borne infection,50898
complemented group,50898
cedrus,50898
atomic domain,50898
street newspaper,50898
Keetch-Byram Drought Index,50898
Streptocephalidae,50898
ataxia-telangiectasia,50898
TLS.,50898
probabilistic proof,50898
wet etching,50898
fracture zone,50898
pancreas-kidney transplant,50898
geomagnetic reversal,50898
Chlordiazepoxide,50898
Sodium bicarbonate,50898
canker,50898
perspiration,50898
slaver,50898
North Atlantic deep water,50898
chemokinesis,50898
Ogna,50898
Exodus,50898
oligodeoxyribonucleotide,50898
Carex rostrata,50898
hindered amine,50898
selenomethionine,50898
nasociliary nerve,50898
Taq DNA polymerase,50898
Membrane transport,50898
TCSPC,50898
Euphydryas editha quino,50898
noesis,50898
New Phytologist,50898
Elf,50898
Kern,50898
beta hairpin,50898
Point Accepted Mutation,50898
Oratorian fathers,50898
diagonal relationship,50898
fault plane,50898
SeaDataNet,50898
free gingival margin,50898
homeodomain proteins,50898
bivatuzumab,50898
hybridise,50898
Slater determinant,50898
Heat generation,50898
Cisapride,50898
Wildemann,50898
odd function,50898
sensitive high-resolution ion microprobe,50898
Lead nitrate,50898
French fries,50898
Reims,50898
Abdominal discomfort,50898
ocimene,50898
Pan-African,50898
Philosophical Transactions,50898
aulacogen,50898
Pubic hair,50898
alcoholate,50898
Boiss.,50898
Keyhole,50898
ratio scale,50898
amide hydrolysis,50898
multitrait-multimethod matrix,50898
Trematochampsidae,50898
emotional competence,50898
EEnet,50898
opportunistic breeders,50898
base stacking,50898
Christian civilization,50898
Teniposide,50898
Dioxygen,50898
Henan Province,50898
Placentia,50898
hydrothermal alteration,50898
public knowledge,50898
Sugar phosphates,50898
auditory-verbal,50898
French-American-British (FAB) classification,50898
PC format,50898
prepilin peptidase,50898
native Indonesians,50898
quinolizidine alkaloids,50898
disrotatory,50898
Alimemazine,50898
"receptor, epidermal growth factor",50898
Ranong,50898
Arabian Basin,50898
gap penalties,50898
pless,50898
check valve,50898
PSYCHLIT,50898
1-Deoxy-D-xylulose 5-phosphate,50898
Data acquisition,50898
ITAMs,50898
pericyclic,50898
elemental calcium,50898
noema,50898
Antrum,50898
X M,50898
Gregor,50898
substituted piperazine,50898
Glutaryl-CoA dehydrogenase,50898
adenosine A1,50898
Dilithium,50898
2007-2008 financial crisis,50898
Photopic,50898
Plant community,50898
Dexfenfluramine,50898
Pan European Game Information,50898
affine geometry,50898
Spinocerebellar ataxia,50898
boundary representation,50898
Computer-supported collaborative learning (CSCL),50898
multivariate adaptive regression splines,50898
Teacher education,50898
Leukodystrophies,50898
pholcid,50898
Pokemon,50898
Digit ratio,50898
multigrid method,50898
Nanocrystal,50898
Automath,50898
Schwannomas,50898
cuprate superconductor,50898
The hairpin,50898
gamma function,50898
Aland Islands,50898
OCDS,50898
Body fluid,50898
30S ribosomal subunits,50898
Oligodendrocyte,50898
corpora cardiaca,50898
geographically speaking,50898
Penile cancer,50898
Voce,50898
Timber-framed,50898
basal body temperature,50898
nominal data,50898
nephropexy,50898
mitosene,50898
Wiener-Ikehara theorem,50898
Marxian,50898
Rembarrnga,50898
Hyperlipidemia,50898
Male breast cancer,50898
Asante,50898
brownfields,50898
out-of-band,50898
relative wind,50898
Capraia,50898
Brown corpus,50898
Grignard compound,50898
rhodanese,50898
Evaluative conditioning,50898
core ontology,50898
Margaritifera margaritifera,50898
NGR1,50898
Steam,50898
2-Hydroxyglutaric aciduria,50898
protocol translation,50898
lormetazepam,50898
Topological analysis,50898
pair creation,50898
Selective reporting,50898
jump-diffusion model,50898
Complement proteins,50898
Mantle cell lymphoma,50898
hypoestrogenism,50898
WILSON,50898
Total mesorectal excision,50898
combinatorial optimisation,50898
Megaprojects,50898
gastrointestinal blood loss,50898
Seveso,50898
shoulder blocks,86265
WAB,50898
polyacrylonitrile (PAN),50898
Gravitation,50898
alkali metal halide,50898
access space,50898
chyluria,50898
Externalities,50898
human extinction,50898
Polyetheretherketone,50898
body area network,50898
suspension bridge,50898
Coherent Backscattering,50898
anamniote,50898
Grid network,50898
national costume,50898
Peroxisome proliferator-activated receptor,50898
adrenomedullary,50898
Rh blood group system,50898
depilation,50898
subcutaneous emphysema,50898
L-Glucose,50898
rase,50898
alpha amylase,50898
Phototoxicity,50898
Pepsinogen,50898
landscape architecture,50898
Winsor & Newton,86292
hidden valleys,50898
VTT,50898
L-11,50898
lattice gauge theories,50898
almond meal,50898
business modeling,50898
point-of-care testing,50898
D2 dopamine receptors,50898
correspondence problem,50898
Degarelix,50898
FDI World Dental Federation,50898
Acarodomatia,50898
real quadratic field,50898
Cancer pain,50898
surface ionization,50898
pulsed radiofrequency,50898
quantitative systems pharmacology,50898
morphological derivation,50898
FPU,50898
Chris Arthur,50898
R-algebras,50898
Binary pulsar,50898
anodic bonding,50898
ultrashort pulse,50898
Momentum transfer,50898
The Faint,50898
N-Methyl-D-Aspartate receptor,50898
characteristic matrix,86320
prenex,50898
Maranhao,50898
Fluorescence resonance energy transfer (FRET),50898
blastoma,50898
pyranoside,50898
Cinchona ledgeriana,50898
Ondatra,50898
prehensile,50898
Hydrogarnet,50898
Aspartame,50898
Chloris virgata,50898
Newtonian mechanics,50898
Iranian Georgians,50898
ATP-binding cassette transporter A1 (Abca1),50898
Glatiramer acetate,50898
glass-transition temperature,50898
Nucella lapillus,50898
mobile source,50898
carbadox,50898
Plaggen,50898
Erich Fromm,50898
5-alpha-reductase inhibitor,50898
Bobath Concept,50898
LHI,50898
coronary in-stent restenosis,50898
Electron capture dissociation,50898
methylene unit,50898
Renal failure,50898
Growth hormone treatment,50898
indirect speech,50898
Properdin,50898
micellar liquid chromatography,50898
silent stroke,50898
high-pressure cell,50898
Feature detection,50898
Coronavirus,50898
identifiability analysis,50898
lithium bromide,50898
phosphite triester,50898
iterated map,50898
Scottish Gaelic,50898
Protectionist,50898
levocabastine,50898
software engineer,86364
La Paz,50898
WDVV,50898
Fermi statistics,50898
Sade,50898
Multiple Mirror Telescope,50898
lambda-carrageenan,50898
electrotonic potential,50898
Cucumber mosaic virus,50898
Hyperuricaemia,50898
Smooth muscle cell,50898
freshwater mollusc,50898
Channel Tunnel,50898
Gross-Neveu model,50898
understanding power,50898
limnological,50898
Opposite Worlds,50898
Bradshaw,50898
doxifluridine,50898
single scull,50898
coconut oil,50898
BRST quantization,50898
overutilization,50898
Omnivorous,50898
Cerebellar hypoplasia,50898
tetrabutyltin,50898
archicortex,50898
Biliary atresia,50898
plasma desorption mass spectrometry,50898
Foliation,50898
arrival theorem,50898
vulvitis,50898
subjectivism,86396
Electroluminescence,50898
Kirkwood,50898
Shannon limit,50898
Epictetus,86400
Vivid,50898
Tomorrow,50898
registered partnership,50898
Morita equivalence,50898
Antigen presenting cells,50898
Intrathecal administration,50898
large-scale structure,50898
Ustilago,50898
mangrove creek,50898
Iodine deficiency,50898
Erythrokeratodermia,50898
3-satisfiability,50898
bad parents,50898
Extracorporeal shock wave lithotripsy,50898
How children learn,50898
paganism,50898
arrest unit,50898
Antigen processing,50898
Ricardo,50898
Thrombotic thrombocytopenic purpura,50898
combined hyperlipidemia,50898
Haplochromine,50898
trochanteric bursitis,50898
Universal access,50898
Leger,50898
TSX,50898
enterprise search,50898
Seminoma,50898
Cat scratch disease,50898
metallacrown,50898
promax,50898
Gingiva,50898
Gelofusine,50898
Dutch-speaking community,50898
LTV,50898
DELTA-S,50898
High Q,50898
SOE,50898
Blood diseases,50898
cutan,50898
Structure formation,50898
skutterudite,50898
Gender variant,50898
TBE buffer,50898
Thouinia,50898
Uruguay Round,50898
secondary mortgage market,50898
supertype,50898
bovine spongiform encephalopathy (BSE),50898
astroclone,50898
J34,50898
Gastrointestinal bleeding,50898
Singlish,50898
Theca interna,50898
Snow removal,50898
Eth,50898
filoviruses,50898
pupillary light reflex,50898
standard design,50898
Weert,50898
class I antiarrhythmic agent,50898
benzidine,50898
covers 2,50898
leptospira,50898
LVG,50898
caryopses,50898
open-loop gain,50898
ecotoxic,50898
full breakfast,50898
organomercury compound,50898
anti-nuclear,50898
kalinin,50898
Black-body,50898
FLII,50898
stromatolite,50898
RANBP2,50898
captan,50898
ATO,50898
Free Church,50898
pulegone,50898
Schwarzschild geometry,50898
DADLE,50898
secondary antibody,50898
Woolf,50898
dGMP,50898
Gbps,50898
diosgenin,50898
vaginal health,50898
amacrine cells,50898
T-Rex,50898
10 Gigabit Ethernet,50898
IF-logic,50898
Attack model,50898
timber-framed,50898
IFV,50898
Eagle Claw,50898
transformation problem,50898
suppository,50898
human chromosome 2,50898
preinitiation complex,50898
Log-linear analysis,50898
retromer,50898
IAB,50898
odor detection threshold,50898
Muslim feminist,50898
Leerdam,50898
zoochorous,50898
Sealant,50898
mimesis,50898
rattus,50898
Dingle,50898
first-pass metabolism,50898
n-butylamine,50898
eriodictyol,50898
glucosyltransferases,50898
"phosphatidylinositol 3,4,5-triphosphate",50898
suicide methods,50898
atlantoaxial joint,50898
Bulbostylis,50898
citral,50898
data cube,50898
sulfapyridine,50898
electron shell,50898
MIC-1,50898
Amalfi,50898
Fourier integral,50898
myocardial markers,50898
Lucker,50898
lead oxide,50898
Laporte,50898
nod genes,50898
IGFBP1,50898
pyroglutamate aminopeptidase,50898
Tinder,50898
Lingga Island,50898
orthodontic braces,50898
dimethylacetamide,50898
phase-contrast imaging,50898
Brunei,50898
RDOS,50898
Currituck,50898
submental,50898
Volpara,50898
pseudomonas,50898
GAD-7,50898
pediatric psychologist,50898
degarelix,50898
leukotriene receptor antagonist,50898
southern water,50898
Functional residual capacity,50898
middle turbinates,50898
fus,50898
VFL,50898
high performance computers,50898
Dolichos,50898
Ola,50898
tetraphenylborate,50898
"2,3-dihydroxybenzoate",50898
H9N2,50898
Instar,50898
oil red O,50898
remipedes,50898
Hard tissue,50898
artherosclerosis,50898
pefloxacin,50898
GlgE,50898
Small cells,50898
fluorescent light,50898
pronucleus,50898
LIFR,50898
Krop,50898
Alkene,50898
thioamide,50898
LH-RH,50898
Ribosomal RNA,50898
MASP-2,50898
hydrolytic enzyme,50898
software life cycle,50898
anti-nuclear movement,50898
enol ether,50898
Pangaea,50898
Halorhodopsin,50898
anterior deltoid,50898
emetic,50898
Pea Island,50898
nickeline,50898
Marchantia,50898
megaparsecs,50898
volumetric density,50898
stylus,50898
Acetylcysteine,50898
Guaiacum,50898
spin traps,50898
hobo,50898
postorbital,50898
Obidoxime,50898
electrolyte abnormalities,50898
tuberose,50898
Laser coagulation,50898
Sucrose gradient centrifugation,50898
ventriculography,50898
cyanogen bromide,50898
Bejaia,50898
MS-Windows,50898
C6H11,50898
hydrogarnet,50898
exercise ball,50898
reflection nebula,50898
Cyperus,50898
URh,50898
outwelling,50898
FLEXPART,50898
Inuit,50898
r-space,50898
P elements,50898
FRSA,50898
multiple endocrine neoplasia type 2,50898
XAD,50898
lysine biosynthesis,50898
FIS,50898
h26,50898
Euclea,50898
Riau Archipelago,50898
Axinellidae,50898
EKV,50898
pelvic muscles,50898
wheals,50898
pulmonary failure,50898
NAi,50898
ticarcillin,50898
ALDH3A2,50898
boulder clay,50898
logarithmic average,50898
Myc-tag,50898
Linear Regression,50898
capped brood,50898
SES-1,50898
Fructose-bisphosphate aldolase,50898
Ciarlet,50898
schistocytes,50898
CWP2,50898
Imposex,50898
Griffonia simplicifolia,50898
ELKS,50898
analytic function,50898
Rickettsiella,50898
cleidocranial dysostosis,50898
Francisco de Vitoria,50898
ferric sulfate,50898
Electrode array,50898
progressor,50898
real vector bundle,50898
effective half-life,50898
pUC,50898
Pyruvate decarboxylase,50898
nasal cavities,50898
hub airport,50898
Quillaja,50898
Pseudomonads,50898
dual process theories,50898
R CrA,50898
R.Br.,50898
meperidine,50898
GRM7,50898
carbon trade,50898
Orthodromic,50898
Elimination half-life,50898
luteinization,50898
audit committee,50898
troponin-C,50898
selective glucocorticoid receptor agonist,50898
PPP3CA,50898
Specific growth rate,50898
aspartame,50898
phenylglyoxal,50898
innominate artery,50898
larva currens,50898
tektite,50898
satellite communications,50898
LTV.,50898
posterior commissure,50898
trifluoperazine,50898
phenolic substances,50898
oxychlorination,50898
modified release,50898
Tiktak,50898
clonal deletion,50898
Ustilaginaceae,50898
laissez faire,50898
profilometer,50898
thiocyanates,50898
ullmannite,50898
dental abrasion,50898
NFS,50898
methiothepin,50898
Sucralfate,50898
fluorescer,50898
Esenbeckia,50898
root locus,50898
A. opercularis,50898
carbon-14,50898
Inclination,50898
alpha-ketoglutarate dehydrogenase,50898
dichromate,50898
Halichondriidae,50898
superhump,50898
Nubian sandstone,50898
heliobacteria,50898
DLG5,50898
tem,50898
Amberlite,50898
pld1,50898
protein data bank,50898
insurability,50898
retractile testis,50898
KCNAB1,50898
Cardiac myocytes,50898
habenular nucleus,50898
skarn,50898
stoicism,50898
GHC,50898
Reeuwijk,50898
ventricular filling pressures,50898
Aura,50898
Ronda,50898
Gravitational potential,50898
hyaloid,50898
nucleus tractus solitarii,50898
pustule,50898
sonic hedgehog,50898
iodized oil,50898
Muhlenbergia,50898
Jitter,50898
S/M,50898
Saint Denis,50898
MURCS association,50898
Spanish colonization,50898
pDA,50898
Adenylate cyclase,50898
polycystic ovary disease,50898
Tenasserim,50898
Maff,50898
UDT,50898
Mimachlamys,50898
enoxacin,50898
polyvinylchloride,50898
VPS35,50898
Silent stroke,50898
proton-proton coupling,50898
Meisenheimer complex,50898
moto,50898
Syros,50898
Magnesium sulphate,50898
Wolman disease,50898
sylvian fissure,50898
EAAC,50898
Gliosis,50898
tomato aspermy virus,50898
biliary sludge,50898
Somme,50898
CASP,50898
Bhavani,50898
glycochenodeoxycholic acid,50898
tear fault,50898
SROH,50898
LBL,50898
diatomaceous earth,50898
gender variant,50898
sauna,50898
human centrifuge,50898
PRLR,50898
ACH,50898
Haemodynamic response,50898
EU Council,50898
Raviart,50898
occulting,50898
soman,50898
polyoxyethylene,50898
L-Cysteine,50898
epoccipitals,50898
obidoxime,50898
PPP3CB,50898
amyloid beta-protein precursor,50898
Roem.,50898
Spiroplasma,50898
Green Paper,50898
Induction furnace,50898
water export,50898
lasI,50898
Cellulase,50898
SETDB1,50898
bowenoid papulosis,50898
HI-6,50898
Heinemann,50898
dental braces,50898
polyphyly,50898
hyperlipoproteinemia,50898
Microaerophilic,50898
Hoffa,50898
magnesia,50898
lissamphibian,50898
CT6,50898
green wall,50898
ABL2,50898
Axon terminals,50898
Maximum principle,50898
Sputtering,50898
M. zapota,50898
CI-MPR,50898
melanocyte stimulating hormone,50898
G-10,50898
Lactobacillus gasseri,50898
sphalerite,50898
interleukin 23,50898
Cleomaceae,50898
APh,50898
Physostigmine,50898
r-selected,50898
PHD finger,50898
COL7A1,50898
viability PCR,50898
feline leukemia virus,50898
van 't Hoff,50898
Masp2,50898
trimethylgallium,50898
organic geochemistry,50898
aromatic nitration,50898
Shoplifting,50898
Congenital malformations,50898
Ticarcillin,50898
Flavin adenine dinucleotide (FAD),50898
Gerlach,50898
spermatheca,50898
frequency factor,50898
Stiefel-Whitney class,50898
WHM,50898
pqq,50898
GJB4,50898
mpeg1,50898
NID2,50898
empirical orthogonal functions,50898
Beni,50898
prior art,50898
Paspalum,50898
lead chromate,50898
34 hours,50898
PAH clearance,50898
S. sanguinis,50898
hookup app,50898
Lewis number,50898
posterior tibial artery,50898
arachidic,50898
Lam.,50898
myomectomy,50898
metallopeptidase,50898
Sporobolus,50898
nabumetone,50898
COPII,50898
voice disorder,50898
pentlandite,50898
crest factor,50898
L-cystine,50898
step counter,50898
facultative anaerobes,50898
SHN,50898
5-methoxytryptamine,50898
uroporphyrinogen III,50898
FAM46A,50898
radicular pain,50898
Rhabditida,50898
Crooswijk,50898
cap site,50898
M8,50898
Cochlea,50898
Asklepios,50898
Vicia hirsuta,50898
decarbonization,50898
morphological segmentation,50898
quadruplex,50898
pregnanediol,50898
Scirpus maritimus,50898
Mmp28,50898
potassium oxide,50898
envenomation,50898
T-box proteins,50898
X60,50898
Acenaphthylene,50898
Neupert,50898
Behavioural Pharmacology,50898
optical media,50898
receptor internalization,50898
Lorentzian profile,50898
epitaxy,50898
subcloning,50898
Lumbriculidae,50898
linnaeite,50898
afferent lymphatic vessels,50898
erythrokeratodermia variabilis,50898
ZEM,50898
The Situation,50898
Type VII,50898
blue-shift,50898
sialography,50898
Pulsed-field gel electrophoresis,50898
U50,50898
NOX3,50898
D. simulans,50898
mediterranean climate,50898
SEMA3C,50898
ada protein,50898
strings attached,50898
office chair,50898
RND1,50898
nomifensine,50898
UT1,50898
type C-3,50898
ulcerative dermatitis,50898
Middle Pleistocene age,50898
neuroprotectants,50898
CT7,50898
Verbal fluency test,50898
paraxial mesoderm,50898
electromagnetic compatibility,50898
Type 1 Diabetes,50898
Jamesian,50898
Malagasy people,50898
Tissue hydration,50898
Antifibrinolytic,50898
PPY,50898
PTBP1,50898
Peros Banhos,50898
Telechelic,50898
Bischofszell,50898
conformal coating,50898
npr,50898
forbidden area,50898
nucleogenic,50898
Callan,50898
f119,50898
Cleome,50898
pseudonormal,50898
MOVPE,50898
Activating transcription factor,50898
botryomycosis,50898
thioacetamide,50898
lacertid,50898
"Dublin, California",50898
Palermo,50898
altanserin,50898
collagen gel contraction assay,50898
radiation hybrid mapping,50898
acyl-coA,50898
Almirall,50898
HTV,50898
jackhammer,50898
ADIPOR1,50898
megavolt,50898
glucose 1-phosphate,50898
cryptic splice site,50898
Urea breath test,50898
A. tripolium,50898
extended amygdala,50898
pronuclear,50898
pelvic splanchnic nerves,50898
XRI,50898
HPI,50898
stretch factor,50898
carboxyfluorescein succinimidyl ester,50898
isoindole,50898
ethylnitrosourea,50898
bending magnet,50898
Hatteras,50898
The wheal,50898
detc,50898
IMSS,50898
Podarcis,50898
Gramicidin S,50898
cycloserine,50898
AVEA,50898
PACE4,50898
beam trawl,50898
pleiotrophin,50898
inductive sensor,50898
millerite,50898
NONOate,50898
Haringey,50898
osteology,50898
gallnut,50898
catenary,50898
KBC,50898
HSAN,50898
Troglitazone,50898
Proline-rich proteins,50898
Transferase,50898
urinary obstruction,50898
Atf3,50898
Hale-Bopp,50898
software patent,50898
red streak,50898
WOWO,50898
Antiserum,50898
higher-order aberrations,50898
GIT1,50898
Crambeidae,50898
binding selectivity,50898
axillary hair,50898
apocrine,50898
Oxalate,50898
Gallotia,50898
PGK1,50898
SNPS,50898
Cytopathology,50898
psychological schools,50898
8-oxo-2'-deoxyguanosine,50898
Reinbeck,50898
Pacific decadal oscillation,50898
UNA,50898
ATMS,50898
archaeocytes,50898
vaccinia,50898
c-Src,50898
atriopeptin,50898
Biotite,50898
VT group,50898
atrioventricular septum,50898
minisatellite,50898
serological survey,50898
wiggler,50898
PbO,50898
Immunoperoxidase,50898
Rosid,50898
chasmosaurine,50898
Fractal analysis,50898
gardenia,50898
subglottic stenosis,50898
splanchnic nerves,50898
fluorosilicate,50898
common reed,50898
EMC,50898
T-lymphoblastic leukemia/lymphoma,50898
mackinawite,50898
snowpack,50898
Calcitonin,50898
Crambidae,50898
Lipoxygenase,50898
Aciachne,50898
channelized,50898
Cyanogen bromide,50898
FOXA1,50898
Naltrexone,50898
Torosaurus utahensis,50898
Pefloxacin,50898
e428,50898
CONTIN,50898
cao,50898
guina,50898
spectrum range,50898
saffron,50898
sporocyst,50898
Byelorussia,50898
afterdepolarization,50898
Applied Biosystems,50898
SERPINI1,50898
Ustilago maydis,50898
M129,50898
greybody,50898
DADS,50898
enthalpically,50898
A477,50898
genital stage,50898
A. cerana,50898
denominator data,50898
Hoogsteen base pair,50898
Aland,50898
absorptivity,50898
CRLF2,50898
Pyrimethamine,50898
trigger strategy,50898
DOBU,50898
Saqqara,50898
Digital image processing,50898
microdensitometer,50898
journal Citation Reports,50898
Van Nes,50898
Nico,50898
Human Microbiome Project,50898
formylmethanofuran,50898
Setaria,50898
Robotic surgery,50898
Gestalt principles,50898
NAFTA,50898
benefit incidence,50898
totally bounded,50898
Tomb Raider,50898
tert-butyl hydroperoxide,50898
Khwe,50898
sulphonamides,50898
Marguerite Bay,50898
pseudofolliculitis barbae,50898
post-communist societies,50898
Skyrme model,50898
Penfield,50898
symmetric space,50898
semantic relation,50898
CIHR,50898
Baylis-Hillman,50898
long-run average cost,50898
eclectic approach,50898
Hierro,50898
regulation approach,50898
Finno-Ugric,50898
2-hexanone,50898
Unconsciousness,50898
E-Government,50898
sensory transduction,50898
symbolic dynamics,50898
I.T.I.,50898
Sjogren Syndrome,50898
Walter Brueggemann,50898
electroreceptor,50898
Citral,50898
Steenwijk,50898
millennium development goals (MDGs),50898
giant dipole resonance,50898
organization science,50898
upward spiral,50898
recursively enumerable set,50898
netbook,50898
dictionary compression,50898
mesovarium,50898
context awareness,50898
twistor,50898
urinary calculi,50898
cyclic stress,50898
Teucrium,50898
Bamako Initiative,50898
Locusta migratoria,50898
iterated function system,50898
edge-connected,50898
Festuca rubra,50898
nephroptosis,50898
cardiac nerves,50898
Mn1,50898
DLR,50898
periwinkle,50898
penalty stroke,50898
Wolff-Kishner reduction,50898
subjective expected utility,50898
Multi-criteria decision analysis,50898
public limited companies,50898
Peptide bond,50898
mandelonitrile,50898
Google Images,50898
characteristic matrices,86320
isoxazoles,50898
low-ionization nuclear emission-line region,50898
Kobane,50898
Sm-2,50898
lithoautotrophic,50898
laboratory glassware,50898
web browser history,86364
metal-air,50898
beam waist,50898
biohazard,50898
Hugo Grotius,50898
Planorbarius corneus,50898
Afar Region,50898
multiplicative noise,50898
Flavobacterium,50898
COPE,50898
vertical integration,50898
Medjugorje,50898
The Choice,50898
Sipunculus nudus,50898
skeletal traction,50898
consumer ethnocentrism,50898
Phaeodactylum tricornutum,50898
hamuli,50898
neo-Darwinian,50898
exception handling,50898
Muslim fundamentalism,50898
Georgians,50898
Bismuth Subcitrate,50898
prosumers,50898
Laminariaceae,50898
Reminiscing,50898
float-zone silicon,50898
myotonic dystrophy,50898
juggler,50898
skin appendage,50898
asperlicin,50898
Bergman space,50898
P-element,50898
gneiss dome,50898
grandfathered,50898
AM Canum Venaticorum star,50898
message-passing,50898
radial keratotomy,50898
CHILDES,50898
social anthropologists,50898
legal mobilization,50898
Universiteit van Amsterdam,50898
von Neumann algebra,50898
External fixation,50898
dichogamy,50898
Gunwinyguan,50898
remipede,50898
seat belt,50898
role strain,50898
MR8,50898
tumour lysis syndrome,50898
Adriamycin,50898
Dutch Armed Forces,50898
ceratopsid,50898
Anovulation,50898
essential singularity,50898
perindopril,50898
RIETVELD,50898
Reproducing Kernel Hilbert Spaces,50898
homunculus,50898
OC43,50898
thirteen communities,50898
transitive verb,50898
forty-eighters,50898
Halostachine,50898
Hebrides,50898
Amsterdam central station,50898
Intentionality,50898
Panax notoginseng,50898
simulation heuristic,50898
Anglo-Saxon literature,50898
Zacatecas,50898
Mollusca,50898
High Performance Liquid Chromatography,50898
soft constraint,50898
Hitachi,50898
twitcher,50898
Wuchereria bancrofti,50898
Fiber optic,50898
Kolumbo,50898
closed set,50898
Bayesian Nash equilibrium,50898
capital budgeting,50898
RICHARD RORTY,50898
software reuse,50898
bacterial microcompartments,50898
gallium arsenide,50898
combinatorial explosion,50898
vinylpyridine,50898
synthetic speech,50898
arcminute,50898
carbohydrate synthesis,50898
EC 1.13.11.12,50898
GJB3,50898
RNA element,50898
Hadley circulation,50898
SPTLC1,50898
branched bur-reed,50898
Direct contact,50898
cwp2,50898
deaggregation,50898
TGFB2,50898
lactitol,50898
hydrothermal vents,50898
ciliary zonules,50898
Fibrillin,50898
Urbana,50898
starting time,50898
headland,50898
geranylgeraniol,50898
ochratoxin A,50898
STAT5b,50898
Gossypium,50898
hemisuccinate,50898
NKK,50898
RBBP8,50898
Jura,50898
JMS,50898
merino,50898
Citalopram,50898
song bird,50898
w12,50898
test suite,50898
G7e,50898
Pentasa,50898
Eublepharis,50898
L55,50898
Anchoring fibrils,50898
nitrox,50898
metadolerites,50898
VAV1,50898
CCl2,50898
mucilaginous,50898
Immunosuppressive therapy,50898
Poland anomaly,50898
humin,50898
Potassium channel,50898
Thalassodendron,50898
M. gordonae,50898
homeostatic response,50898
Lycoperdon,50898
indusium griseum,50898
signaling control,50898
Pentagastrin,50898
Cloxacillin,50898
Calibra,50898
Anti-,50898
HUGO Gene Nomenclature Committee,50898
south Norway,50898
Iodized salt,50898
M13 phage,50898
Neutralino,50898
Rubia cordifolia,50898
G7a,50898
epifaunal,50898
Starburst,50898
Liechtenstein,50898
The O2,50898
cyclododecatriene,50898
Nm23,50898
"1,2-cyclohexanedione",50898
gravity perception,50898
squamosals,50898
A. florea,50898
Dystrophin,50898
epithet,50898
Myopathy,50898
dyscrasite,50898
convulsant,50898
Rous sarcoma virus,50898
EDRF,50898
delta lake,50898
DWSS,50898
electrum,50898
Psychopharmacology,50898
The CURE,50898
patiens,50898
HGNC,50898
BH3 interacting domain death agonist,50898
Molar mass,50898
carrollite,50898
Castrated,50898
HGVS,50898
plant pathogen,50898
hypophysis,50898
FFF system,50898
Rhine Graben,50898
ANIT,50898
intracranial self-stimulation,50898
Thamnophis,50898
acidophilic,50898
bulk transport,50898
otic notch,50898
leptotene,50898
amorph,50898
ultracentrifuge,50898
hessite,50898
"2,4,6-tribromoanisole",50898
Malate,50898
accordion,50898
Gas exchange,50898
stannoidite,50898
Cannibalism,50898
pagoda,50898
papaya,50898
LENK,50898
slipped-strand mispairing,50898
YBP,50898
turmeric,50898
Arcytophyllum,50898
Egr1,50898
L. salivarius,50898
enderbite,50898
SH3-binding domain,50898
mawsonite,50898
stereotactic neurosurgery,50898
Early Human Development,50898
Styria,50898
lumbar artery,50898
TDRS,50898
Torosaurus,50898
Gross motor function classification system,50898
aikinite,50898
TSR2,50898
Mhc,50898
Mackenzie River,50898
prograde metamorphism,50898
South Equatorial Current,50898
red bed,50898
Msx,50898
radiatively cooled,50898
laminin 5,50898
seiche,50898
microfilament,50898
robotic prostatectomy,50898
Dark Energy Survey,50898
IMPRESS,50898
Yttrium-90,50898
locusta,50898
Haber-Weiss reaction,50898
transcellular fluid,50898
Nitric oxide synthase,50898
iridium anomaly,50898
Brefeldin A,50898
Immunoscintigraphy,50898
bournonite,50898
Trematodes,50898
Hamra,50898
Medical Physics,50898
bregma,50898
mouse infection model,50898
cestodes,50898
carassius,50898
MAPK signaling pathway,50898
ZAMs,50898
pyrargyrite,50898
middle Paleozoic,50898
recessus lateralis,50898
glycoprotein IIb/IIIa inhibitor,50898
boudins,50898
Nerve Growth Factor (NGF),50898
semelparous,50898
complete metric,50898
Heliobacterium,50898
Goddard Space Flight Center (GSFC),50898
gamma correction,50898
red fescue,50898
Delta M,50898
Specific power,50898
cardiac dysrhythmias,50898
methyl chloride,50898
fire exit,50898
Paepalanthus,50898
heavy-fermion compounds,50898
C1 inhibitor protein,50898
radial glial cell,50898
weather station,50898
full-text search,50898
Gentianella campestris,50898
tetracyanoquinodimethane,50898
fw,50898
polar set,50898
Skidmore,50898
Ronald Reagan,50898
Orthogonality,50898
hyperbolic equilibrium point,50898
The Big Four,50898
The duplex,50898
system T,50898
arg min,50898
Diesel exhaust,50898
Dichotomy,50898
submarine volcano,50898
dash,50898
Karl Storz GmbH,50898
carbapenem-resistant Enterobacteriaceae,50898
network solutions,50898
trisection,50898
consumer focus,50898
murder rates,50898
IBM-PC,50898
orthographic transcription,50898
Pholcus phalangioides,50898
commercial balance,50898
Svecofennides,50898
British parliament,50898
Collaborative Network,50898
solubilizer,50898
black poplar,50898
topoi,50898
European Synchrotron Radiation Facility,50898
asymmetric reaction,50898
Genetic algorithms,50898
syllabification,50898
thionyl chloride,50898
Pecten,50898
X-5,50898
mass spawning,50898
silyl enol ethers,50898
Lucilia sericata,50898
C band,50898
instantaneous luminosity,50898
social gerontology,50898
C4-plants,50898
de novo sequencing,50898
video monitor,50898
NGC 3227,50898
copper iodide,50898
stochastic matrices,50898
Arbiter,50898
auditor independence,50898
pentagastrin,50898
Pulmonata,50898
silicon oxide,50898
Cefuroxime,50898
Simmons-Smith,50898
B-cell lymphoproliferative disease,50898
Salmo,50898
"1,2-bis(diphenylphosphino)ethane",50898
30y,50898
Amstelveen,50898
oestrous cycle,50898
Dissimilation,50898
Spreadsheet,50898
megestrol acetate,50898
Photodiode,50898
Oosterdokseiland,50898
Gestalt psychology,50898
transductive,50898
pro-hormone,50898
Aeolus,50898
Phyllite,50898
English verbs,50898
stiff equation,50898
drink-driving,50898
social fact,50898
melanosis,50898
human menopausal gonadotropin,50898
H98,50898
Heraclitean,50898
Emerald,50898
Skolt Sami,50898
dynamical theory,50898
Onchocerca volvulus,50898
Medical Expenditure Panel Survey,50898
ridge-push,50898
radar meteorology,50898
Hegelian,50898
craniotomies,50898
psychobiology,50898
filum terminale,50898
Spacelab,50898
Calakmul Biosphere Reserve,50898
Linn,50898
Operating system,50898
lopolith,50898
Runge,50898
The tester,50898
Platinol,50898
rhodium-catalyzed hydrogenation,50898
optimum currency area,50898
Boussinesq equation,50898
Lara Croft,50898
model theoretic,50898
Guanajuato,50898
Activity Based Costing,50898
antibody microarray,50898
Heroides,50898
Jabal Shams,50898
polysynthetic language,50898
fixed link,50898
signal compression,50898
Communards,50898
eBay,50898
Baboon,50898
Groen van Prinsterer,50898
billable hours,50898
Gauribidanur,50898
Hennessy,50898
RHodobacter sphaeroides,50898
Garrett,50898
FerB,50898
nasopalatine duct,50898
cobar,50898
Oesling,50898
marginal abatement costs,50898
Skolt,50898
thigmotaxis,50898
totipotency,50898
white slave traffic,50898
dew point,50898
hairpin 5,50898
immunoconjugates,50898
catecholate,50898
miargyrite,50898
symmetry operation,50898
Sulpiride,50898
chromate,50898
ferric oxides,50898
platyhelminths,50898
gekkonids,50898
vessel monitoring system,50898
22 deletion,50898
spin singlet,50898
nicomorphine,50898
Human embryos,50898
cardiac enzymes,50898
helper T-cell,50898
Sarotherodon,50898
Suvat,50898
nidogen,50898
pyrolusite,50898
bismuthinite,50898
Bona,50898
aS2,50898
stibnite,50898
garden hose,50898
type-I collagen,50898
"N-ethoxycarbonyl-2-ethoxy-1,2-dihydroquinoline",50898
Pepstatin,50898
Bombyx mori,50898
Talamanca,50898
Z-DNA,50898
Leupeptin,50898
absolute neutrophil count,50898
EEDQ,50898
acanthite,50898
groupwise,50898
alabandite,50898
applied analysis,50898
cervical insufficiency,50898
myristoylation,50898
Respiratory system,50898
B-5,50898
orographical,50898
Tamura,50898
Borda,50898
Sado,50898
Carditis,50898
greenockite,50898
circinate,50898
Shannon Index,50898
binary models,50898
stannite,50898
pars reticulata,50898
Rosids,50898
Mizoguchi,50898
FCER1A,50898
table salt,50898
gyrate,50898
Lancian,50898
McPherson,50898
cardiac function curve,50898
Nilgiri Hills,50898
Fujiwara,50898
mercury chloride,50898
dicotyledons,50898
isonitriles,50898
nucleoplasmin,50898
cln3,50898
observability Gramian,50898
Prawitz,50898
dangerous liaisons,50898
water waves,50898
hydrazine sulfate,50898
US Treasuries,50898
Pushchino Radio Astronomy Observatory,50898
VRT,50898
Great Exuma Island,50898
Helical boundary conditions,50898
two-point correlation function,50898
amastia,50898
Dopamine D1 receptor,50898
Tympanometry,50898
cyclotron radiation,50898
rural councils,50898
Large White,50898
Tissue culture,50898
cucumber mosaic virus,50898
simple pole,50898
speech synthesis,50898
adoptive cell transfer,50898
Scatchard plot,50898
workcell,50898
supply-side economic,50898
SN1987A,50898
Parental control,50898
Self-medication,50898
CB2 receptor,50898
primary care clinic,50898
Arava Valley,50898
A. spinosus,50898
monoblasts,50898
mathematical realism,50898
Cerebral Cortex,50898
Scapharca,50898
CGS,50898
static mixer,50898
non-contradiction,50898
if-then-else,50898
LiBr,50898
MTI,50898
Jeffreys prior,50898
test pattern,50898
autarchy,50898
diaminocyclohexane,50898
Mnemosyne,50898
Santa Cruz,50898
HP/LT,50898
temporal muscles,50898
adult hemoglobin,50898
disc protrusion,50898
primary effusion lymphoma,50898
circuit switching,50898
tear film,50898
joint probability density function,50898
p-x,50898
Wheatstone bridge,50898
trimethylolpropane,50898
Lara,50898
guilty pleasures,50898
2D gel electrophoresis,50898
Fredholm integral equation,50898
Deventer,50898
Ssa2,50898
grey-breasted wood-wren,50898
cell sap,50898
root rot,50898
7J,50898
Poverty reduction,50898
type III hyperlipoproteinemia,50898
smut fungi,50898
Jagannathan,50898
CD-MPR,50898
framing narrative,50898
Vitamin B6,50898
estramustine,50898
vignetting,50898
acritarch,50898
Usher,50898
reuptake inhibition,50898
TfO,50898
Middle cerebral artery,50898
full benefits,50898
Retromer,50898
tris(2-aminoethyl)amine,50898
unit impulse,50898
unitary matrix,50898
atom economy,50898
Awassa,50898
peace time,50898
aqueous flare,50898
encapsulin,50898
self-mutilating,50898
Violent conflict,50898
timber framing,50898
manure management,50898
neuroglobin,50898
Kleene star,50898
SLID,50898
enrichment culture,50898
Fourier integral operator,50898
southwest Finland,50898
Safavid,50898
Article 6 ECHR,50898
Thai people,50898
Locard,50898
Ground reaction force,50898
Kueyen,50898
Modernity,50898
Gazi,50898
Direct Method,50898
zf,50898
anesthetised,50898
psychological examination,50898
posterior tibial arteries,50898
Implementation intention,50898
price stickiness,50898
Commelinales,50898
simplicial set,50898
semi-conductor,50898
Horn clause,50898
panniculus carnosus,50898
Tetris,50898
conditional correlation,50898
Cenchrus,50898
United Kingdom Infrared Telescope,50898
dark places,50898
FVA,50898
"1,3-bis(diphenylphosphino)propane",50898
Kelly Smith,50898
Mackintosh,50898
daunosamine,50898
Constructivism,50898
SDAM,50898
sulfites,50898
Micromorph,50898
preventive medicine,50898
Ojo Alamo Formation,50898
Hauterivian,50898
RU-486,50898
San Juan Basin,50898
Clarias,50898
McRae Formation,50898
tert-butyl isocyanide,50898
ulvospinel,50898
longshore transport,50898
great vessels,50898
intra-arc,50898
molybdenite,50898
Chalcopyrite,50898
Tunel,50898
Chasmosaurinae,50898
granulopoiesis,50898
Golgi system,50898
Choquet,50898
grits,50898
Enneapogon,50898
CFO,50898
Ria de Aveiro,50898
noncoding DNA,50898
GVH,50898
marginal sea,50898
wet age-related macular degeneration,50898
nucleus paraventricularis,50898
TPPTS,50898
police legitimacy,50898
basic set,50898
Sokolow,50898
3-hydroxypropanal,50898
Wortel,50898
Seveso Directive,50898
Zero-point energy,50898
internally displaced,50898
GRIN2B,50898
hard constraints,50898
Virotherapy,50898
Louis Bonaparte,50898
cerebrospinal fluid leak,50898
rhythmic songs,50898
video search engine,50898
progressive systemic sclerosis,50898
electric dipole transition,50898
C6H12,50898
Globotriaosylceramide,50898
Arrhinoceratops,50898
Phagocyte,50898
bispecific monoclonal antibody,50898
natural black,50898
CLIP170,50898
minority carrier,50898
Oxazepam,50898
NUT,50898
Cretaceous Long Normal,50898
centrifuges,50898
eventful,50898
Third-World,50898
Ellipsometry,50898
Nature News,50898
Eno2,50898
excess chemical potential,50898
Quantile regression,50898
denotational semantics,50898
Pietsch,50898
Pantelleria,50898
surplus-value,50898
Poisson manifold,50898
Thomas Chalmers,50898
image recognition,50898
clinozoisite,50898
oligochaeta,50898
FITS,50898
Protagoras,50898
self-organizing map,50898
Kangemi,50898
patent family,50898
Fortran 77,50898
christianization,50898
absolute return,50898
culms,50898
yield point,50898
class II cavities,50898
Grandmont,50898
The practitioner,50898
Henicorhina leucophrys,50898
product-form equilibrium distribution,50898
heat pipe,50898
pararosanilin,50898
sea star,50898
Standard English,50898
Dacrycarpus dacrydioides,50898
bicategory,50898
abstract labour,50898
The babies,50898
continuous dual,50898
Eviews,50898
black throat,50898
bag model,50898
Fast Fourier transform,50898
antitumor antibiotic,50898
transposase,50898
register machine,50898
"Bharatpur, Nepal",50898
helium-oxygen,50898
venison,50898
isocitrate lyase,50898
noncooperative game,50898
Gunner,50898
testator,50898
direct speech,50898
Philip III,50898
digital x-ray radiogrammetry,50898
residue theorem,50898
Eriocaulaceae,50898
Eurovision Song Contest,50898
G-quadruplex,50898
pseudoautosomal,50898
statistical learning theory,50898
motor axonal,50898
QMM,50898
thromboxanes,50898
Nickerie district,50898
urine cytology,50898
El Mirador,50898
Burroughs,50898
spherical coordinates,50898
Western Culture,50898
amplitude-modulation,50898
p-aminosalicylic acid,50898
loperamide,50898
Azores Current,50898
Zhengzhou,50898
fractile,50898
Fuzeon,50898
three-manifold,50898
Lie coalgebra,50898
Qajar,50898
military intelligence,50898
Strain hardening,50898
rainfed agriculture,50898
Newburn,50898
alkylbenzene sulfonate,50898
Least Concern,50898
Reagan,50898
population inversion,50898
Cartan connection,50898
slow learners,50898
Project MATCH,50898
chasmosaurines,50898
PL-1,50898
North China Craton,50898
synthetic vaccine,50898
soft power,50898
Terminal sedation,50898
czarist empire,50898
spin-lattice,50898
dual citizenship,50898
Tait,50898
symmetry element,50898
clinical lymphoma,50898
high-level synthesis,50898
EP5,50898
tendon rupture,50898
Podocarpaceae,50898
Xyridaceae,50898
Trisomy 18,50898
"N,N'-dicyclohexylcarbodiimide",50898
"1,3-dithiane",50898
Probucol,50898
Helisoma trivolvis,50898
Dihydrofolate reductase,50898
bicistronic mRNA,50898
BLAS,50898
HM4,50898
Sagittarius Dwarf Spheroidal Galaxy,50898
Confident,50898
ASTRID,50898
TPAP,50898
event recorder,50898
retrognathism,50898
Gadodiamide,50898
hplc,50898
membrane filter,50898
coronal activity,50898
apparent temperature,50898
Protein Kinase C (PKC),50898
orchestrator,50898
phonetician,50898
c1 complex,50898
Dot blot,50898
isopach,50898
Pocilloporidae,50898
western slope,50898
A reminder,50898
natural deduction,50898
Safavid Iran,50898
butyl acrylate,50898
Citrus limon,50898
ground clutter,50898
maximal torus,50898
Australis,50898
Omaha,50898
mox,50898
folate-binding protein,50898
cornicle,50898
real-time rendering,50898
Bam,50898
companion matrix,50898
interrogative pronoun,50898
interpersonal relationship,50898
attributional bias,50898
Finnic,50898
satellite RNA,50898
Pitalito,50898
fourth session,50898
lymphomatoid granulomatosis,50898
First-order logic,50898
Acanthocephala,50898
overfit,50898
musea,50898
Melsungen,50898
Odontaster validus,50898
multiple sex partners,50898
scientific working group,50898
p-glycoprotein,50898
Ojibway,50898
Rhodesia,50898
rogletimide,50898
halflives,50898
multiplicative character,50898
Premelting,50898
Ixodes arboricola,50898
Northdown,50898
intimate relations,50898
ecchymoses,50898
Cophyla phyllodactyla,50898
dihydroorotate,50898
LDPE,50898
Napoleon,50898
PSTPIP1,50898
temporal role,50898
Hep,50898
Thiele modulus,50898
pi stacking,50898
PgP,50898
Bispebjerg Hospital,50898
MMDs,50898
Entropa,50898
Big Four accounting firms,50898
global recession,50898
East Siberian Arctic shelf,50898
cervical vertebra,50898
Aeromonas hydrophila,50898
out-of-hours service,50898
World Development,50898
malate synthase,50898
plasmablastic lymphoma,50898
turret,50898
forced prostitution,50898
dimensional modeling,50898
time-frequency domain,50898
NANDA,50898
Patient Activation Measure,50898
GRIK2,50898
.GG,50898
NLRP7,50898
Hessite,50898
dysautonomia,50898
Cartan geometry,50898
Early Middle Ages,50898
free group,50898
optic tract,50898
2 hearts,50898
chemical oxygen demand,50898
gamma-A,50898
street drug,50898
executioner,50898
Fiducial marker,50898
Cognitive Science Society,50898
Simplex algorithm,50898
Extracellular fluid,50898
VU medical centre,50898
tooth whitening,50898
spatial partitioning,50898
apocrine sweat glands,50898
osmotic coefficient,50898
equilateral triangle,50898
Provencher,50898
spina bifida occulta,50898
fixed point arithmetic,50898
East Bloc,50898
Vas deferens,50898
unit test,50898
resource recovery,50898
medicinal chemist,50898
z-transform,50898
Low vision,50898
random function,50898
top-down proteomics,50898
pyrimidine nucleotides,50898
Soviet foreign relations,50898
clinical linguistics,50898
10 Meter,50898
functional discourse grammar,50898
Battambang,50898
gastric content,50898
complete metric space,50898
biosynthesize,50898
nasal mucus,50898
nose-blowing,50898
mixoploidy,50898
northwestern Africa,50898
prolonged bedrest,50898
Volterra series,50898
Fredholm equation,50898
body diagonal,50898
Iraqi refugees,50898
longitudinal mode,50898
Taniguchi,50898
dark counts,50898
diphone,50898
misalliance,50898
Neopetrosia subtriangularis,50898
Clausius-Clapeyron relation,50898
ANAE,50898
In excess,50898
Learnability,50898
Brownian motor,50898
vermiculation,50898
corticotropin releasing factor,50898
reducing atmosphere,50898
kununurra,50898
constant change,50898
umbrella sampling,50898
serine palmitoyltransferase,50898
hybrid dysgenesis,50898
Phorbol esters,50898
Nothofagus menziesii,50898
recommender system,50898
chronic obstructive pulmonary disorder,50898
Synchronous Optical Network,50898
documentary film,50898
Quickbird,50898
vertical seat,50898
The stands,50898
Somatropin,50898
gender disparity,50898
Lerma,50898
Chagos Archipelago,50898
CBr3,50898
Buntsandstein,50898
congenital hip dislocation,50898
Garland,50898
pollen source,50898
Cerner Corporation,50898
RATTLE,50898
proper subset,50898
abstract data types,50898
ratnapura,50898
behavioral selection,50898
band pass filter,50898
talin,50898
cinnamon,50898
hydrostatic stress,50898
Lusitania,50898
Munakata,50898
terminal 5,50898
Torulaspora,50898
indicator bacteria,50898
formal series,50898
Samoyedic,50898
Physella gyrina,50898
n-butyl acetate,50898
Tuple,50898
CARNA,50898
Big Four,50898
Rye,50898
Wassenaar,50898
Vertebrata,50898
lymphocyte functions,50898
effective electron mass,50898
eccrine glands,50898
Codogno,50898
Verlinde formula,50898
Cyprian Norwid,50898
MQR,50898
dCMP,50898
optical limit,50898
jackknifing,50898
Dabie Mountains,50898
Data Mining,50898
Chlorococcum,50898
Gamma Ray,50898
SR 1,50898
Taiji,50898
two-alternative forced choice,50898
forecast models,50898
penis size,50898
nonsteroid,50898
separation wall,50898
decipherment,50898
endurability,50898
coil-globule transition,50898
Sievert,50898
Walter Baade,50898
"Eureka, Nunavut",50898
Andhra Pradesh,50898
PDE4 inhibitor,50898
nitriding,50898
Physidae,50898
Corporate social responsibility,50898
Slit lamp,50898
CD56bright,50898
percutaneous transhepatic cholangiography,50898
Macquarie Island,50898
latrine,50898
Advocate General,50898
cost overrun,50898
GRM8,50898
pEX1,50898
jugal,50898
cystamine,50898
methylating agent,50898
Scheduled maintenance,50898
photorespiration,50898
Cinque,50898
Verbal autopsy,50898
Setubal,50898
greylag geese,50898
flesh fly,50898
Riemann-Hilbert problem,50898
awl,50898
geoid,50898
Deterritorialization,50898
matrilinear,50898
magnesium sulfide,50898
tumor lysis syndrome,50898
lumazine synthase,50898
Restriction endonuclease,50898
Carnot,50898
Cystic Fibrosis Foundation,50898
flu season,50898
southeast Africa,50898
African clawed frog,50898
parvocellular cell,50898
narrow QRS complexes,50898
self-segregation,50898
cell fate determination,50898
Mean Square Error,50898
twenty-fifth,50898
thiosulphate,50898
Photopheresis,50898
EC 1.14.16.1,50898
Trembler,50898
Dictyostelium,50898
InfiniBand,50898
at-large,50898
fast fourier transform (FFT),50898
Parliamentary democracy,50898
Cirazoline,50898
Thirteen women,50898
genetically modified organism,50898
Abrikosov lattice,50898
physiological dependence,50898
Synchronous Digital Hierarchy,50898
organic anion transporters,50898
perinephric,50898
Obligatory Contour Principle,50898
Grissom,50898
Radial artery,50898
Lotus corniculatus,50898
amphiphatic,50898
polyhexanide,50898
Las Pilas,50898
surface fractal,50898
Selzentry,50898
cumulus cloud,50898
high-resolution transmission electron microscope,50898
Cardiothoracic Surgery,50898
Keplerian orbit,50898
symplectic cut,50898
Oddball paradigm,50898
inferius,50898
micropyle,50898
hybrid Monte Carlo,50898
Miller J,50898
Genetically modified tomato,50898
material fatigue,50898
East Meadow,50898
Ubaque,50898
behaviour analysis,50898
data-intensive computing,50898
Anser anser,50898
SONET,50898
peanut stunt virus,50898
Racine,50898
MAP2K4,50898
angular aperture,50898
Respiratory failure,50898
Arava,50898
cross-over studies,50898
realis,50898
follicular atresia,50898
Aquifex aeolicus,50898
submarine landslide,50898
cold sensitivity,50898
dental record,50898
Colony-forming unit (CFU),50898
tetradymite,50898
quadrate,50898
No trend,50898
Aequipecten opercularis,50898
congenital adrenal hypoplasia,50898
A-stability,50898
vertebral canal,50898
oncovin,50898
radioactive waste management,50898
Narita,50898
Tardieu,50898
elegy,50898
inositol phospholipid,50898
temporal discretization,50898
No type,50898
Lorentz Invariance,50898
cervical loop,50898
virtual memory,50898
cytochrome b6,50898
Esophagus,50898
secondary emotions,50898
Peristalsis,50898
couleur,50898
Klf4,50898
Praziquantel,50898
clausthalite,50898
Japan Society,50898
programmed electrical stimulation (PES),50898
directed cycle,50898
Interleukin-13,50898
Tunicamycin,50898
principal group,50898
dopexamine,50898
leucine-responsive regulatory protein,50898
vicryl,50898
chief cell,50898
quadratojugal,50898
Elysia rufescens,50898
bioproduction,50898
CD122,50898
Geographic Information Systems,50898
Nitrendipine,50898
CSMA,50898
modular theory,50898
common application,50898
plaggen soil,50898
Raman Scattering,50898
fibrous connective tissue,50898
POCl3,50898
contact language,50898
simpler algorithm,50898
ot,50898
myxoid,50898
shoplifting,50898
RAP1,50898
acetylate,50898
Clavicle,50898
alpine belt,50898
biological rhythm,50898
Crystalloid,50898
Lewis structure,50898
TAAC,50898
The demise,50898
DiMarzio,50898
Electroretinography,50898
perspectivism,50898
centrocyte,50898
Beta-catenin,50898
basaloid squamous cell carcinoma,50898
Faddeev equations,50898
CARS microscopy,50898
switch fabric,50898
Wolffian,50898
Cholera toxin,50898
Manilkara zapota,50898
Finnish sauna,50898
Schult.,50898
retroflexion,50898
functorial,50898
Karkar Island,50898
Afghanistan War,50898
chronicle,50898
Darier,50898
cyclic hydrocarbon,50898
C2 axis,50898
crystal habit,50898
OraQuick,50898
Immaculate Conception,50898
pedotransfer functions,50898
nu3,50898
NRCC,50898
reasoned action approach,50898
budesonide/formoterol,50898
Chloroquine resistance,50898
emulsion polymerization,50898
Laffont,50898
educt,50898
L-ribose,50898
Inequity aversion,50898
Caqueta river,50898
Transaction cost,50898
Emerging technologies,50898
lysosomal acid lipase,50898
accidental meeting,50898
HETE-2,50898
membrane paradigm,50898
four-valued logic,50898
balloon aortic valvuloplasty,50898
Amlodipine,50898
ANDI,50898
bushmeat,50898
political globalization,50898
formal epistemology,50898
Jeanne Duval,50898
Glutamate dehydrogenase,50898
Cytotoxic T-cells,50898
right-wing populists,50898
monetary reform,50898
Enterotoxigenic Escherichia coli,50898
Botulism,50898
Rauvolfia,50898
functional programming,50898
The scalp,50898
Speaker,50898
Homeric epics,50898
HP-35,50898
Church planting,50898
Gey,50898
Nanocomposites,50898
Electroconvulsive Therapy (ECT),50898
Bulgarian Turkish,50898
student loan,50898
Social desirability,50898
Phytosterol,50898
residual claimant,88423
adposition,50898
nDCG,50898
mirative,50898
Identifiability,50898
scleral buckling,50898
Exchange transfusion,50898
Xenon (Xe),50898
boundary object,50898
single density,50898
Chinese Wall,89439
feminist pornography,50898
Natural selection,50898
Information distance,50898
Mammary gland,50898
cognitive-behavioral therapies,50898
benefactive,50898
IAIs,50898
ancient woodland,50898
time flies,50898
ultramarine,50898
Eosinophilic esophagitis,50898
infrared Space Observatory,50898
Star Carr,50898
Nike,50898
Memory & Cognition,50898
tanning dependence,50898
gauge symmetries,50898
spot market,50898
image sensor,50898
image schema,50898
death row,50898
Cohesin,50898
female genital mutilation,50898
visual literacy,88457
Metapopulation,50898
vocabulary mismatch,50898
nonstandard analysis,50898
indoline,50898
TRAPPIST-1,50898
Polychronicity,50898
International Film Festival Rotterdam,50898
selectorate theory,50898
superdiversity,50898
Inhalational anaesthetic,50898
fault-tolerant,50898
application programming interfaces (APIs),50898
shear-thinning,50898
epifluorescence microscope,50898
bully-victims,50898
transsaccadic memory,50898
Micro Electro-Mechanical Systems (MEMS),50898
Masirah,50898
technological self-efficacy,88476
atomic formula,50898
nanotechnologies,50898
Cerro Paranal,50898
Auger process,50898
circulation problem,50898
Social connectedness,50898
Sophiatown,50898
Health Promoting Hospitals,50898
Gossip Girl,88485
Heterokaryon,50898
acetabula,50898
organizational studies,50898
Myotomy,50898
mentalize,50898
biconditional,50898
religious freedom,50898
global production networks,50898
Vasovagal syncope,50898
absolute visual magnitude,50898
Leprosy control,50898
Anammox,50898
Jasper Heywood,50898
human ether-a-go-go-related gene,50898
NBB,50898
platyrrhines,50898
multimodal learning,50898
artivism,50898
Sr-84,50898
E-channel,50898
arrogate,50898
China Mieville,50898
K-point,50898
Amblyseius largoensis,50898
procedural content generation,50898
amplitude amplification,50898
Dethiobacter,50898
propolis,50898
tau Ceti,50898
Willett,50898
unit sphere,50898
Euclidean domain,50898
Morus,50898
organ transplant,50898
Chromosome conformation capture,50898
Legacy effects,50898
OMSs,50898
win win,50898
clinical anatomy,50898
IWI,50898
Lindley,50898
molecular encapsulation,50898
breakfast television,50898
Bunyavirus,50898
judgmental language,88530
concurrency control,50898
Modified Newtonian dynamics (MOND),50898
Hypoactive sexual desire disorder,50898
Pyruvate dehydrogenase,50898
Directive 2010/63/EU,50898
Earth system dynamics,50898
Cnidarians,50898
landfarming,50898
Sologne,50898
Bronchial hyperresponsiveness,50898
region-1,50898
2000 elections,50898
transaction log,50898
type II string theory,50898
miniature inverted-repeat transposable elements,50898
Constantijn Huygens,50898
electronic calendar,50898
Archaeological field survey,50898
response surface methods,50898
yes-no question,50898
Mizuno,50898
Richard Titmuss,50898
Flexicurity,50898
Intimate Partner Violence,50898
Arterial tortuosity syndrome,50898
sport management,50898
Private law,50898
Desiderius Erasmus,50898
shadow banking,50898
User-centered design,50898
primary sensory cortex,50898
matter wave,50898
Lamoraal van Egmont,50898
BioCreative,50898
Leonardo da Vinci,50898
Cystic duct,50898
ubiquitous computing,88567
Crowd simulation,50898
Bayesian Model Averaging,50898
cyclopentadienylthallium,50898
catastrophic antiphospholipid syndrome,50898
Kathleen Thelen,50898
Atrial septal defect,50898
awash,50898
gnathostomes,50898
James Webb Space Telescope,50898
Parallel Distributed Processing,50898
Michelet,50898
self-organizing system,50898
Chemical ionization,50898
propositional attitude,88581
London Protocol,50898
intersection form,50898
payment services,50898
Las Bambas,50898
hypergiant,50898
The invader,50898
DOCK8 gene,50898
Microsporidia,50898
Vanadium dioxide,50898
Brownian bridge,50898
unearned income,50898
recombination activating gene,50898
H5N8,50898
listserv,50898
Diplomatic History,50898
stability theory,50898
Deworming,50898
Intensive care unit (ICU),50898
Cape Lion,50898
anodically,50898
KIF6,50898
Autoimmune hemolytic anemia,50898
mitochondrial control region,50898
marsh fritillary,50898
Marxist theory,50898
physical intimacy,50898
short trips,50898
M-matrix,50898
Tyler,50898
Pacific War,50898
social heuristics,50898
Androgenetic alopecia,50898
Arachnida,50898
bredero,50898
Green leaf volatiles,50898
Central serous chorioretinopathy,50898
Wide-Field Infrared Survey Explorer (WISE),50898
Cuprate,50898
Touchscreen,50898
noel,50898
Genocide Convention,50898
zoochory,50898
printed circuit board (PCB),50898
Paul Horwich,50898
3-Hydroxy-3-methylglutaryl-CoA lyase deficiency,50898
radio drama,50898
wind wave model,50898
Orientopsaltria,50898
hydrodynamic size,50898
scuba-diving,50898
Vitamin K deficiency,50898
blogsphere,50898
Walloon movement,50898
Increased intracranial pressure,50898
Thomas Bradwardine,50898
Phospholamban,50898
Adrenomyeloneuropathy,50898
Monocytosis,50898
Bleach,50898
Chloracne,50898
distributed lag,50898
Hurricane Floyd,50898
Ketoacidosis,50898
Continuing Medical Education (CME),50898
Alma-Ata declaration,50898
The trough,50898
TVET,88648
historic cost,50898
Korotkoff sounds,50898
Hale,50898
Roman Republic,50898
extreme ultraviolet lithography,50898
ETBE,50898
unidentified infrared emission,50898
breaststroke,50898
substitute good,50898
Xanthate,50898
renal tumor,50898
The Foundations,50898
boilerplate code,50898
Kondo model,50898
Hyperlysinemia,50898
vitelline vein,50898
Parkstad Limburg,50898
Medium-chain acyl-CoA dehydrogenase deficiency,50898
EGRA,50898
In Death,50898
instruction set architecture,50898
"Richmond, VA",50898
Richard Peters,50898
Ecthyma gangrenosum,50898
LSZ reduction formula,50898
stover,50898
Vitruvius,50898
country branding,50898
H6N1,50898
yttria-stabilized zirconia,50898
duplo,50898
coronary perfusion pressure,50898
AHRQ,50898
distributed computer system,50898
Cusco,50898
chloracne,50898
Jeans mass,50898
cyclic olefin copolymer,50898
telson,50898
National Health Insurance,50898
genitourinary system,50898
Urbania,50898
D-xylulose,50898
G99,50898
Mira-type variable star,50898
Roche Lobe,50898
ccr5,50898
gravitational action,50898
flattened affect,50898
PSTVd,50898
JDBC,50898
ayutthaya,50898
net energy gain,50898
simplicius,50898
RAND Corporation,50898
thin ice,50898
reptation,50898
SG 2,50898
medical model,50898
type II supernovae,50898
joint fluid,50898
measured depth,50898
Oligosaccharide,50898
Jamuna,50898
jaoi,50898
guttural pouch,50898
terlipressin,50898
fan fiction,50898
correspondence learning,50898
crisscross,50898
MX1,50898
vaginal intraepithelial neoplasia,50898
Amnesia,50898
Language complexity,50898
Fresnel reflection,50898
costovertebral joints,50898
fabulation,50898
Egmont,50898
FcEV,50898
Quaker,50898
Inform,50898
soil life,50898
Contrast-enhanced ultrasound,50898
high-speed camera,50898
sequential equilibrium,50898
metanephrine,50898
MTMR2,50898
maquis,50898
Eleonora,50898
Mera,50898
orchidopexy,50898
feature group,50898
Aventra,50898
REC8,50898
Howell-Jolly bodies,50898
Irish Sea,50898
lithium fluoride,50898
internal resistance,50898
workers' movement,50898
lacewing,50898
incertidumbre,50898
heuristic algorithms,50898
Hardness,50898
Gran Telescopio Canarias,50898
C. botulinum,50898
Kibera,50898
Miconia minutiflora,50898
power word,50898
Basidiomycetes,50898
chickpea,50898
Bible belt,50898
gastric sleeve,50898
Windisch,50898
gilts,50898
medial femoral condyle,50898
Oculina,50898
Wikinomics,50898
heavy-chain antibodies,50898
orographic rainfall,50898
Adoxaceae,50898
thyroidologist,50898
interglacial period,50898
DYNC2H1,50898
sMer,50898
Ox1,50898
metamaterial,50898
barnidipine,50898
mineral weathering,50898
Heywood,50898
Ricci,50898
marine regression,50898
Ysselsteyn,50898
ARCS,50898
tesofensine,50898
acetochlor,50898
Diacetylmorphine,50898
PandaX,50898
Resolvin D2,50898
thermoluminescent dosimeter,50898
Iodine-125,50898
Troas,50898
PIKAIA,50898
clobutinol,50898
Traditional Courts,50898
Megalomania,50898
G205,50898
BEST1,50898
KCNJ3,50898
Onsager reciprocal relations,50898
Hush,50898
Amazon.fr,50898
tergite,50898
Pilosocereus royenii,50898
process mining,50898
Kilombero valley,50898
protein crystallography,50898
Kenya Medical Research Institute,50898
Perineal hernia,50898
Slow loris,50898
Haskell,50898
leucon,50898
CP2K,50898
EMPA,50898
Glacial landform,50898
Milnor,50898
second-order arithmetic,50898
optical engineering,50898
Machiavellian,50898
Royaume Uni,50898
secondary cell wall,50898
theridion,50898
caucasian race,50898
Azide,50898
gagA,50898
multinucleate,50898
Solar power,50898
enlarged prostate,50898
Large Synoptic Survey Telescope,50898
ITAP,50898
William Penn,50898
Hhohho Region,50898
Safety monitoring,50898
thiobutabarbital,50898
AFRs,50898
Phylogenies,50898
Indotyphlidae,50898
viroid,50898
Anelloviridae,50898
distributive lattice,50898
Boeotians,50898
"inositol 1,4,5-triphosphate (IP3)",50898
Atacama desert,50898
DOCK8 deficiency,50898
Indiscernibles,50898
polar bodies,50898
spin network,50898
JUNB,50898
chemosensation,50898
ApEn,50898
Northwick Park,50898
Cassia abbreviata,50898
genetic anticipation,50898
CD248,50898
cogency,50898
bSTC,50898
Haberman,50898
syntactic ambiguity,50898
Milbank Quarterly,50898
wonderful compactification,50898
2 gauge,50898
enteric coated,50898
falcon,50898
MAUI,50898
Oliv.,50898
ELCA,50898
abelian group,50898
aldh7a1,50898
thallium(I),50898
outer product,50898
vitelline veins,50898
montevideo,50898
weekly income,50898
Quickstep,50898
Sanliurfa,50898
alicaforsen,50898
PGY,50898
fratercula,50898
osteopathy,50898
Kozak sequence,50898
Amazon.de,50898
strange matter,50898
EAAS,50898
Chiococca,50898
Sudanian,50898
placoderm,50898
West Asia,50898
ICAP,50898
electroweak interaction,50898
central nervous system depressants,50898
complex frequency,50898
NGC 1448,50898
Schoenoplectus,50898
douching,50898
omega-9 fatty acids,50898
Tocantins,50898
alpha 1-antitrypsin deficiency,50898
Acarus siro,50898
Grade 1B,50898
Hill criteria,50898
n-butyl cyanoacrylate,50898
Oxfam Novib,50898
Artocarpus altilis,50898
gnuplot,50898
Hinode,50898
Nekrasov,50898
M/M/1 model,50898
compressibilities,50898
Ruritania,50898
tate,50898
cultural theory,50898
Radicicol,50898
Pudong,50898
+357,50898
eyespot,50898
2PG,50898
frictional keratosis,50898
Queen Mary I,50898
NATEM,50898
Genetic rescue,50898
Fano factor,50898
forensic identification,50898
separated sets,50898
Maresin,50898
pmch,50898
bombesin,50898
wall peak,50898
oxygenic photoautotrophs,50898
Colletotrichum higginsianum,50898
custom built,50898
PRI,50898
LPDS,50898
carrier oil,50898
Sost,50898
red tails,50898
Trujilo,50898
occupational epidemiology,50898
sido,50898
red ochre,50898
Averrhoa bilimbi,50898
Aqueous humor,50898
A217,50898
radiation retinopathy,50898
Cirrhosis,50898
ANGPTL3,50898
Atmospheric models,50898
heart valve prosthesis,50898
radio wave,50898
Stigmellites,50898
nuclear fusion,50898
Trinidadian,50898
Gutu District,50898
Paul Colinvaux,50898
excreta,50898
A-20,50898
Arvicanthis,50898
biochemical engineering,50898
landscape connectivity,50898
Wolstenholme,50898
QuantiFERON-TB Gold In-Tube,50898
language documentation,50898
DCL1,50898
upper tract,50898
de 82,50898
shock system,50898
Ctbp1,50898
Morogoro,50898
Saint-Pierre,50898
bioconductor,50898
virtually normal,50898
Neurolepis,50898
GPVI,50898
GF-AAS,50898
ID50,50898
chondroid lipoma,50898
polyserositis,50898
cAMP concentration,50898
leptotene stage,50898
OPMs,50898
JVS,50898
Cyprididae,50898
command language,50898
wilhelma,50898
sino-atrial node,50898
mandarin,50898
Ikeda,50898
Kep,50898
viper,50898
Mary I,50898
Ryback,50898
bulbus duodeni,50898
digital culture,50898
Monet,50898
diplococci,50898
Spironolactone,50898
PITP,50898
superbubble,50898
DSC measurement,50898
essential fatty acid deficiency,50898
Enfuvirtide,50898
satellite galaxy,50898
Eurotiales,50898
Hitchc.,50898
Barbadian,50898
Kneser graphs,50898
A308,50898
finalism,50898
second-quantized,50898
evolutionary suicide,50898
Cerro Tololo,50898
methyl benzoate,50898
SLC2A10,50898
ZAP-70,50898
teratozoospermia,50898
centraliser,50898
immunoadjuvant,50898
CN I,50898
solid!,50898
dinomyid,50898
arm1,50898
perineal membrane,50898
australopithecines,50898
wsbm,50898
Securidaca longipedunculata,50898
charge coupled device,50898
Anergy,50898
highest weight vector,50898
caspase 6,50898
de 20,50898
cognitive engineering,50898
Feint,50898
glucose 6 phosphate dehydrogenase deficiency,50898
Aristolochia,50898
thymine dimers,50898
Ansys,50898
LSST,50898
ischial spine,50898
Mississippian,50898
Alicaforsen,50898
Turkish dance,50898
Dendrogyra,50898
coronatine,50898
Neandertals,50898
mealybug,50898
CEACAM4,50898
Asterix,50898
AASS,50898
KRI,50898
Fine-tuning,50898
Bushmeat,50898
Bolitoglossinae,50898
Jamuna river,50898
Cocos nucifera,50898
brown-dwarf,50898
PYs,50898
solar radii,50898
crownward,50898
Spelaeogriphacea,50898
Gpr179,50898
Weyl quantization,50898
SPOCK1,50898
metal-organic Frameworks,50898
Mach,50898
nuclear phase-out,50898
Reticular fibers,50898
cold shock,50898
pilifer,50898
public security police,50898
budworm,50898
phenotypic switching,50898
Squilloidea,50898
Banjul,50898
vismodegib,50898
Cholesky factorization,50898
Stefan-Boltzmann law,50898
Prdx1,50898
entry inhibitors,50898
I.v.,50898
hypersomnia,50898
SPINK5,50898
Weighted Gene Co-expression Network Analysis,50898
Contrast medium,50898
Coulomb barrier,50898
FLUKA,50898
radiation damping,50898
Choristoneura fumiferana,50898
APLA,50898
KCNR,50898
vowel height,50898
cereal crop,50898
IAU,50898
genital ulcer disease,50898
de 3,50898
Mary District,50898
Dunlop,50898
geometric perspective,50898
Sivacanthion,50898
The Hunger Project,50898
Main Sequence,50898
self-injurious behaviour,50898
parapneumonic effusions,50898
El Chichon,50898
kappa mechanism,50898
endocervical,50898
South Island,50898
carob,50898
Pim1,50898
STIM1,50898
common bile duct stones,50898
corneal endothelial cell,50898
response reactions,50898
JAK3,50898
Toddalia,50898
photomask,50898
Engrailed,50898
Jacaranda copaia,50898
LOWESS,50898
irrationalism,50898
La Zizanie,50898
Upper East Region,50898
CE mark,50898
dyon,50898
DHpR,50898
impalement,50898
median lethal dose,50898
Myalgia,50898
The FP,50898
high-pass filter,50898
remotely operated vehicle (ROV),50898
Bartonella,50898
Leukotriene B4,50898
Pacific Islander,50898
Erysiphe pisi,50898
Constitutional symptoms,50898
PKS 2155-304,50898
local lymph node assay,50898
Kerr solution,50898
dinitrogen tetroxide,50898
Geuzenveld,50898
fusion partners,50898
sustainable harvest,50898
Commelina,50898
Taf11,50898
calcium blocker,50898
Norwich,50898
BepiColombo,50898
clinique,50898
African record,50898
restriction digest,50898
Nostocales,50898
adult ADHD Self-Report Scale,50898
eliglustat,50898
respiratory syncytial viruses,50898
poppers,50898
AT 2017gfo,50898
Wi-Fi,50898
claspers,50898
lymphocyte antigen 96,50898
Dioxygenase,50898
DWD,50898
HI-2,50898
poblacion,50898
peak experience,50898
aryl hydrocarbon receptor (AHR),50898
double J,50898
building-integrated photovoltaics,50898
frontness,50898
strong gravitational lensing,50898
orthomodular lattice,50898
snooker,50898
semi-direct product,50898
alpha motor neurons,50898
American Indian,50898
Albendazole,50898
TDEs,50898
oculogyric crises,50898
osteochondroma,50898
DOH,50898
Salm,50898
Culicidae,50898
insensibility,50898
Tuva,50898
nowhere-zero flows,50898
Colbert,50898
dihydrogen bond,50898
KCR,50898
healthy life years,50898
AREG,50898
Cd55,50898
charge sharing,50898
Gossypium barbadense,50898
schizotypal disorder,50898
Batalha,50898
kappa Andromedae,50898
specific heat capacities,50898
WASP-4b,50898
superradiance,50898
type 22,50898
Michaelis-Menten constant,50898
limiting reagent,50898
Alaska Native,50898
mesocarp,50898
HDF5,50898
unramified,50898
plasmablast,50898
private equity firm,50898
neuropathic ulcer,50898
gpr179,50898
carbon credits,50898
Don Giovanni,50898
Ropivacaine,50898
CLN8,50898
childhood arthritis,50898
renal tubule,50898
SCN5a,50898
Kassena-Nankana District,50898
South East England,50898
Mangifera,50898
Nearctic,50898
Tetrahedron Letters,50898
vernakalant,50898
Obstructive sleep apnea,50898
Hitchin system,50898
mixed anomaly,50898
cn,50898
queer studies,50898
Harakiri,50898
lunar cycle,50898
Electric current,50898
RORA,50898
safety pin,50898
Riemannian manifold,50898
Podocyte,50898
MUSM,50898
Furthur,50898
De facto,50898
hexadecanol,50898
The pulsars,50898
debe,50898
GENZ,50898
tubercular meningitis,50898
Self-concept,50898
Glass-ceramic,50898
OLR1,50898
lck,50898
MGluR5,50898
Sox family,50898
skin reflectance,50898
phonological working memory,50898
clasper,50898
insular regions,50898
antischistosomal,50898
Piha,50898
skirl,50898
conidiospores,50898
mesolimbic system,50898
major basic protein,50898
thermal pulsing,50898
cardiotrophin-1,50898
Aldehyde,50898
Akathisia,50898
bioisostere,50898
dFFA,50898
evacetrapib,50898
fibrous dysplasia,50898
schizo,50898
Erythrobacter,50898
protein trimer,50898
Terlipressin,50898
slow flux,50898
cucurbits,50898
Sarcoplasmic reticulum,50898
metalimnion,50898
Ottavio,50898
Differential centrifugation,50898
negative regulatory element,50898
apaziquone,50898
complementarity determining regions,50898
galactooligosaccharides,50898
Israeli Arabs,50898
unused drug,50898
natural reward,50898
plastic surgical,50898
Datong,50898
Pronation,50898
superpower,50898
jack-knife,50898
TGFB3,50898
Lydekker,50898
supernumerary chromosomes,50898
rapax,50898
RNA-mediated interference,50898
pressure melting point,50898
Decision Trees,50898
Miconia prasina,50898
buffer gas,50898
immunoglobulin diversity,50898
Viburnum lantana,50898
Lipaugus,50898
platyrrhine,50898
andesine,50898
cpb,50898
Golestan province,50898
respirometer,50898
CRP group,50898
MAP3K13,50898
OR 11,50898
bungee jumping,50898
Amphiglossus,50898
resonant frequencies,50898
HAS BLED,50898
S100a8,50898
Dakota Formation,50898
Ciliophora,50898
main diagonal,50898
airmass,50898
direct-to-consumer advertising,50898
axolotl,50898
Generic programming,50898
economic anthropologist,50898
herbal tea,50898
WANA,50898
TRECVid,50898
M36,50898
land reforms,50898
distance education,50898
New Guinea Highlands,50898
case-based reasoning,50898
drill press,50898
ecological speciation,50898
Entertainment Weekly,50898
palm tree,50898
intracultural,50898
hydrodynamic instability,50898
Gaussian random field,50898
nightshift,50898
Tomlinson model,50898
medievalist,50898
Custodial Institutions Agency,50898
All White,50898
EUVL,50898
occupational hygiene,50898
nonoxynol-9,50898
data plane,50898
Exner,50898
Some experiments,50898
treebank,50898
Killiney Bay,50898
Deshpande,50898
World Intellectual Property Organization,50898
historic core,50898
G-type star,50898
bakanae,50898
Viktor Pelevin,50898
Canadian Hydrogen Intensity Mapping Experiment,50898
extrasensory perception,50898
Kwanza constituency,50898
PEPS,50898
costly signals,50898
pulmonary valve stenosis,50898
Psychometric Society,50898
topic model,50898
dilated fundus examination,50898
free school,50898
T-schema,50898
MYLIP,50898
anyons,50898
Michel Serres,50898
transaction time,50898
collective trauma,50898
localist,50898
Treebank,50898
Hitomi,50898
trade register,50898
night vision,50898
lozenge,50898
gasoline additive,50898
coprolite,50898
mesopelagic zone,50898
Tanga,50898
Bureaucracy,50898
historic compromise,50898
deductive system,50898
Euphydryas aurinia,50898
Handelsblatt,50898
Pan troglodytes schweinfurthii,50898
discrete modeling,50898
fashion TV,88485
advanced oxidation,50898
microbe-associated molecular patterns,50898
symbolic order,50898
insolubles,50898
Leishmania tropica,50898
principal-agent problem,50898
petascale,50898
Romerolagus,50898
Shaanxi,50898
efalizumab,50898
gastrin releasing peptide,50898
optic nerve sheath meningioma,50898
Humanism,50898
Bailey pair,50898
raven,50898
LEKTI,50898
Cox Process,50898
Yde,50898
spatial ecology,50898
Khaled,50898
Licht,50898
complement component 5a,50898
glycerine,50898
Chila Kumari Burman,50898
low-carbon economy,50898
Sex chromosomes,50898
Antonio Gramsci,50898
meta-ethical,50898
Fernan Caballero,50898
Macroeconomic Dynamics,50898
resource holding potential,50898
Hortaea werneckii,50898
Weggis,50898
Bozeman,50898
colonia,50898
management plane,50898
chastity,50898
milk thistle,50898
stellar collision,50898
GreenLeft,50898
IFFR,50898
Ellsberg paradox,50898
dorsal interosseous,50898
Global Health Promotion,50898
TSES,50898
Nuclear Spectroscopic Telescope Array,50898
"Science Museum, London",50898
polydiacetylene,50898
2-hydroxypyridine,50898
Tsimane',50898
AIIC,50898
Point Prevalence,50898
Berry phase,50898
voice-over,89439
totally unimodular,50898
The American Statistician,50898
greater white-fronted geese,50898
Stand Up Speak Up,50898
sphingolipidosis,50898
Flemish movement,50898
seral,50898
Abaco Island,50898
monetarist,50898
Basque Autonomous Community,50898
2004 Indian Ocean earthquake,50898
swap rate,50898
titanomagnetite,50898
Apurimac,50898
structuralism,50898
cross-matching,50898
harpacticoid copepods,50898
Partial Differential Equations,50898
De Smet,50898
Shellsort,50898
Discontinuous Galerkin,50898
MySpace,50898
segregationist,50898
Lisle,50898
implicit stereotype,50898
light-polluted,50898
General linear model,50898
Drosophila pseudoobscura,50898
finitely presented,50898
welfare-to-work,50898
unconditional cash transfer,50898
culturally transmitted,50898
fundamental class,50898
cherry picking,50898
2004 Olympics,50898
Nicholas Kaldor,50898
stochastic field,50898
negative duty,50898
post-industrial city,50898
image intensifier tube,50898
Moral Majority,50898
GK Persei,50898
ruled surface,50898
Gandhi,50898
minor-monotone,50898
Afterlife,50898
classical modal logic,50898
Pere Lachaise,50898
mentalization-based treatment,50898
sepiapterin reductase,50898
Workbench,50898
endoscopic mucosal resection,50898
hardware virtualization,50898
multi-attribute utility,50898
Yukagir Mammoth,50898
proprietary software,50898
auteur,50898
Little Rock,50898
anti-saccade,50898
coin battery,50898
galactosylceramidase,50898
dfs,50898
Eryon,50898
xylose isomerase,50898
National Science Board,50898
Joris Ivens,50898
OOP,50898
mediatization,50898
Baia Mare,50898
standard gauge,50898
white spirit,50898
GAVI,50898
ectoparasites,50898
O-Glycosylation,50898
Polidocanol,50898
BRCT,50898
tamano,50898
Genetic divergence,50898
cholesterols,50898
Andean foreland basins,50898
phycourobilin,50898
coboundary,50898
"arthritis, reactive",50898
Musashi-1,50898
guanabenz,50898
"SL(2,Z)",50898
gauge transformation,50898
clinical proteomics,50898
S100a9,50898
benzylpiperazine,50898
Solanum melongena,50898
molluscum contagiosum,50898
perflubron,50898
Pleural disease,50898
Marinobacter,50898
clean process,50898
NCOR1,50898
gummy stem blight,50898
circular arc,50898
Antilles Current,50898
Muricauda,50898
CLEC7A,50898
penumbras,50898
Intraventricular hemorrhage,50898
anatomical planes,50898
Garnett,50898
embolizing,50898
programmed cell death 1,50898
BZP,50898
DCG-IV,50898
antifreeze,50898
Rhodobacteraceae,50898
Nucleotide diversity,50898
TAK-1,50898
Prosthesis,50898
free running,50898
Cebidae,50898
Coelastrum,50898
starvation response,50898
kidney cortex,50898
SMARCD1,50898
foco,50898
Galactic coordinates,50898
picaridin,50898
GABRB2,50898
exoskeletal,50898
Juno,50898
leaf mines,50898
B1 receptor,50898
Cebinae,50898
Restriction enzyme,50898
Kepler-22b,50898
selection principle,50898
tecnico,50898
magnetic field reversals,50898
lone electron pair,50898
edge coloring,50898
analytical concentration,50898
E3A,50898
T120,50898
caecilian,50898
hdf5,50898
Buchnera aphidicola,50898
Cassini,50898
Tucson,50898
bowshocks,50898
metamorphopsia,50898
miR-132,50898
AKT inhibitor,50898
FLT4,50898
Gyirong,50898
Chandler,50898
compression-impression fossils,50898
population bottleneck,50898
SC Johnson,50898
Kronig-Penney model,50898
Kringle,50898
Phase II metabolism,50898
neuronal ceroid-lipofuscinosis,50898
Corvallis,50898
Eurasian wigeon,50898
Minit,50898
agroecosystem,50898
HIV superinfection,50898
mpich2,50898
MK-2206,50898
SYK inhibitor,50898
TRIB3,50898
Gammaproteobacterium,50898
Limb girdle muscular dystrophy,50898
principal bundle,50898
el peligro,50898
pre-exponential factor,50898
Callitrichinae,50898
PTB domain,50898
volume transmission,50898
Gloeotrichia,50898
Lilrb4,50898
packet scheduling,50898
Anas penelope,50898
Very long baseline interferometry,50898
bilimbi,50898
Great Lakes,50898
Climate dynamics,50898
genomic amplification,50898
Pyrroline,50898
Chlorophyceae,50898
reciprocal distribution,50898
Malucelli,50898
Boulder,50898
Pneumococcal vaccines,50898
CCL25,50898
HALLE,50898
Chelicerata,50898
pest management,50898
Science Direct,50898
DLST,50898
Pucon,50898
Compound heterozygosity,50898
genetic bottleneck,50898
esophagram,50898
S. melongena,50898
PLUTO,50898
Rhinatrematidae,50898
Dymer,50898
TG4,50898
Creative Commons Attribution 4.0,50898
trenchant,50898
Abcd3,50898
Voyager,50898
Ccr1,50898
Embryo culture,50898
c-terminal,50898
Left circumflex artery,50898
pathotype,50898
DAXX,50898
MYOD1,50898
GpS,50898
IRAF,50898
stay alive,50898
Limnology,50898
Bacillales,50898
phosphofructokinase-1,50898
French Guyana,50898
Phytochrome,50898
TAP2,50898
Americanization,50898
HMG CoA reductase,50898
viables,50898
Biliary cirrhosis,50898
CBOE,50898
Olefin metathesis,50898
Harry Potter,50898
algebraic group,50898
HFMD,50898
apperception,50898
plasma electrolytic oxidation,50898
presidential democracies,50898
waterbird,50898
positivity bias,88530
Respiratory disease,50898
regional anatomy,50898
autonomous action,50898
glucose isomerase,50898
MOPs,50898
integral images,50898
higher order functions,50898
air mattress,50898
Lot Quality Assurance Sampling,50898
Panzhihua,50898
bilaterian,50898
Quartier latin,50898
mendicant orders,50898
knowledge based system,50898
Eurocentricity,50898
Papua Province,50898
ribbon graph,50898
epithelial mesenchymal transition,50898
UCT,50898
endomitosis,50898
allocortex,50898
Nabis pseudoferus,50898
Moravian,50898
Gujarati Muslims,50898
hierarchy problem,50898
gammarid,50898
AuCl3,50898
federation architecture,50898
Chapaev,50898
complex measure,50898
O.J.,50898
yellow-legged gull,50898
large woody debris,50898
Cerro Armazones,50898
Cathelicidin,50898
symbolic interactionist,50898
space observatories,50898
machine code,50898
tape worm,50898
Cebu,50898
software analytics,50898
Barking,50898
Samuel Scheffler,50898
small inductive dimension,50898
folk song,50898
Ukrainian government,50898
illuminance,50898
trend estimation,50898
linguist,50898
incidence relation,50898
cache hit,50898
mise-en-scene,89439
Clanga pomarina,50898
machine perception,50898
positive behavior support,50898
social force model,50898
extravascular hemolysis,50898
phantom eye,50898
facultative sex,50898
chromatic polynomial,50898
Quantum logic,50898
process art,50898
civil rights movement,50898
methylenetetrahydromethanopterin dehydrogenase,50898
Organizational climate,50898
aphonia,50898
Parmentier,50898
empirical cumulative distribution function,50898
news broadcasting,50898
Ricci-flat,50898
Attalea,50898
Zarina Bhimji,50898
Laurence Goldstein,50898
Energiewende,50898
TVline.com,50898
blue-collar job,50898
Haber-Bosch process,50898
Killeen,50898
geodiversity,50898
ENTP,50898
Weimar Republic,50898
EC numbers,50898
The fixations,50898
Christian Right,50898
spayed,50898
Martha,50898
Thymio,50898
cross-relation,50898
supercharge,50898
finite difference time domain,50898
Odyssey,50898
web camera,50898
alternative country,50898
tinea nigra,50898
American ethnicity,50898
telephone switchboard,50898
Nicotiana plumbaginifolia,50898
printed circuit board,50898
electron crystallography,50898
silver tetrafluoroborate,50898
Open Grid Services Architecture (OGSA),50898
Planococcus citri,50898
financial technology,50898
European option,50898
dibromotyrosine,50898
cinema 4D,50898
deubiquitinating enzyme,50898
totally unimodular matrix,50898
Joint Research Centre,50898
cryopyrin,50898
Princeton WordNet,50898
child molestation,50898
codesharing,50898
E.U.,50898
Seneca,50898
panarchy,50898
lesser black-backed gull,50898
Bengaluru,50898
Waag,50898
Pteronia,50898
sympatric speciation,50898
Tay,50898
WGN,50898
SINUM,50898
empagliflozin,50898
relativisation,50898
S Doradus,50898
National Reading Panel,50898
hyperreal,50898
16PF,50898
Nectria haematococca,50898
Complex Adaptive System,50898
Michelle,50898
Metaphors We Live By,50898
scabious,50898
Benelux Economic Union,50898
explanatory style,50898
video archives,50898
Couples Therapy,50898
jargon,50898
Auger recombination,50898
capnography,50898
CpG site,50898
N-Acetylcysteine,50898
structural isomer,50898
marginal model,50898
carbimazole,50898
International Documentary Film Festival Amsterdam,50898
operationalist,50898
motor tax,50898
urban neighborhood,50898
Hardy-Weinberg Principle,50898
samizdat,50898
celiac lymph nodes,50898
nova Persei 1901,50898
Silybum,50898
"2,4-dichlorophenol",50898
Marshall Islands,50898
Wandervogel,50898
interpretability logic,50898
Dmitry Likhachov,50898
Rauh,50898
trophic web,50898
hexokinase 2,50898
Cannabinoid receptor,50898
"1,25-dihydroxy vitamin D",50898
ACACA,50898
Troll,50898
indirect activation,50898
transformation group,50898
EDIL3,50898
STAT5a,50898
benfotiamine,50898
Pbx3,50898
vena cavae,50898
septum spurium,50898
Lout,50898
sister chromatid exchange,50898
JAG1,50898
Paracontias,50898
Stromal cell,50898
Polynucleobacter,50898
FREs,50898
falx,50898
GDP-mannose,50898
Pseudoacontias,50898
DIRAS3,50898
human conditions,50898
environmental niche,50898
Dysbiosis,50898
Amgen,50898
kB,50898
Daiichi,50898
vitales,50898
Mass distribution,50898
Sankyo,50898
drug precursors,50898
SPHK1,50898
GABAB receptor,50898
Holarctic,50898
TRPV5,50898
gastric inhibitory polypeptide receptor,50898
6-diazo-5-oxo-L-norleucine,50898
absent light,50898
PNU,50898
Beltangady,50898
Greater Mekong subregion,50898
Androngo,50898
ADMET,50898
SCTE,50898
Pygomeles,50898
cebid,50898
Tutte polynomial,50898
False Prophet,50898
ACM SIGACT,50898
Pierre Nora,50898
Salla,50898
Guangdong,50898
classroom climate,50898
single assignment,50898
geospatial mapping,50898
humanitarian law,50898
output parameter,50898
juvenile delinquency,50898
Cutdown,50898
formal method,50898
Succisa pratensis,50898
Stayman,50898
Recanati,50898
Silence,50898
interrogative clause,50898
interacting galaxies,50898
cash transfer,50898
Low countries,50898
polychronicity,50898
State immunity,50898
elite theory,50898
Scincinae,50898
PECVD,50898
adaptive mesh refinement,50898
footwashing,50898
Bernstein-von Mises theorem,50898
Alanine aminotransferase,50898
SMRT sequencing,50898
chemolithotroph,50898
Mackworth Clock,50898
Erika,50898
trisilane,50898
Basque conflict,50898
Euseius alatus,50898
marianum,50898
Hypogeophis,50898
non-rapid eye movement,50898
drift speed,50898
capsula,50898
Bargoens,50898
hyperelastic,50898
Fungia,50898
luminaire,50898
kernel function,50898
Financial Times,50898
Kanaleneiland,50898
plethodontid salamanders,50898
legal personality,50898
wearable cardioverter defibrillator,50898
Gestational Diabetes mellitus,50898
lamproite,50898
aggregate price level,50898
super massive black hole,50898
human food security,50898
ethnoscience,50898
SEAL,50898
Abu Dhabi,50898
parallel transmission,50898
Under influence,50898
Simple power,50898
Web Services Resource Framework,50898
magnetic stripe,50898
Gephi,50898
At-risk students,50898
spatial data infrastructure,50898
reel,50898
The spectator,50898
automatic behaviors,50898
subject-object-verb,50898
Takane,50898
autonomous sensory meridian response (ASMR),50898
petrosal,50898
Home Management,50898
Peano Arithmetic,50898
radiation gauge,50898
Agaminae,50898
non-renormalizable,50898
John Law,50898
Schweizer,50898
congenital hepatic fibrosis,50898
digital commerce,50898
Graeme Turner,50898
transponder,50898
Gelfand spectrum,50898
tyrosine aminotransferase,50898
green lacewing,50898
compact subset,50898
sociotechnical systems,50898
biomineralized,50898
Aeroallergen,50898
clotting factor IX,50898
invasive urothelial carcinoma,50898
Sakha (Yakutia) Republic,50898
triphenylamine,50898
Adhocracy,50898
Tien Giang province,50898
Hermione Granger,50898
beta emission,50898
Buddha,50898
Great apes,50898
Mount Etna,50898
Structuration,50898
Starfield,50898
joke cycle,50898
EUBAM,50898
turbellaria,50898
semantic tableau,50898
NRAO VLA Sky Survey,50898
Greater Antilles,50898
pure mathematics,50898
repeat element,50898
fiduciary,50898
Veltman,50898
boilerplate,50898
Internet forum,50898
About fifty,50898
Interleukin-6 receptor,50898
bile duct neoplasms,50898
limescale,50898
wire rope,50898
C-46,50898
Restructured Clinical,50898
wood anatomy,50898
elliptic orbit,50898
architecture description language,50898
Cytoplasmic incompatibility,50898
Kitt Peak,50898
Holborn,50898
unimodular matrix,50898
thoron,50898
social comparison theory,50898
operational context,88457
data stream clustering,50898
Esnault,50898
multi-label classification,50898
mass customization,50898
self-constitution,50898
worst-case execution time,50898
planetary transmission,50898
Twelve Angry Men,50898
Korean Resource Center,50898
common map,50898
German youth movement,50898
Janelia,50898
Georg Waitz,50898
barium titanate,50898
James Webb Space Telescope (JWST),50898
National Police,50898
Factor XI,50898
catenation,50898
Khon Kaen,50898
Received View,50898
Cyp7b1,50898
VoeltZkowia,50898
desmoglein 1,50898
COML,50898
night light,50898
HYDRA,50898
Lymphoedema,50898
destino,50898
Voeltzkowia,50898
Angiomax,50898
falx cerebri,50898
puede ser,50898
clun,50898
tomar,50898
Amastigotes,50898
decisiones,50898
McRae,50898
Tcr,50898
head blight,50898
Nucleation,50898
CineMart,50898
Liaoning Province,50898
network virtualization,50898
galactic halo,50898
Childrens Hospital,50898
monopolistically competitive,50898
SIGACT News,50898
Jean Vanier,50898
liberal feminism,50898
Planck units,50898
BBL,50898
Charotar,50898
earthwork,50898
phosphate permease,50898
deicing,50898
random matrices,50898
VPRO,50898
germacrene A,50898
Void Galaxy,50898
stanine,50898
eastern flyway,50898
Antiviral therapy,50898
symbolic violence,50898
Different stages,50898
Aphasia,50898
stereo camera,50898
The agenda,50898
Eschenmoser,50898
Kinome,50898
pelagic sediment,50898
Ernst Zermelo,50898
Immortality,50898
selective laser melting,50898
Slobodan,50898
Mtwapa,50898
Fuel efficiency,50898
methyl-tert-butylether,50898
penitent,50898
gamma Doradus,50898
Dictyoceratida,50898
Essen,50898
child process,50898
Henri de Boulainvilliers,50898
open-circuit scuba,50898
Hermite polynomials,50898
sea fan,50898
multilinguality,50898
Rosch,50898
thumb position,50898
pestivirus,50898
disjoint union,50898
oil painting,50898
organizational inertia,50898
Southern Highlands,50898
Manx,50898
gill filament,50898
3DMF,50898
dual notions,50898
Romanesque,50898
crenellated,50898
Rostworowski,50898
kinetic friction,50898
Gilboa,50898
thrall,50898
Sonogashira,50898
cutter,50898
Schlegel diagram,50898
spectral evidence,50898
Ouagadougou,50898
tactus,50898
protoxylem,50898
gravitationally lensed,50898
shear transformation,50898
Liar paradox,50898
forkhead transcription factors,50898
The convicted,50898
urban theory,50898
Lymphocytopenia,50898
steatorrhoea,50898
railway sleeper,50898
emotion work,50898
RIla,50898
Osmolarity,50898
fast-track trial,50898
CBCs,50898
Severus Snape,50898
double-blind testing,50898
intermediate language,50898
mouse mammary tumour virus,50898
overburden pressure,50898
musical notation,50898
Queen Elisabeth,50898
Cooperative movement,50898
placemaking,50898
EU-FP7,50898
music perception,50898
GPl,50898
gross private domestic investment,50898
mesoscopic scale,50898
Koreatown Immigrant Workers Alliance,50898
The Walking Dead,50898
zoobenthos,50898
Indochinese region,50898
Atopic eczema,50898
Chrysoperla,50898
Floral Games,50898
artificial membrane,50898
Tuva Republic,50898
Lymphoid tissue,50898
Janus particles,50898
ubiquitin proteasome pathway,50898
multi-layer perceptron,50898
Haaglanden,50898
basis vector,50898
Q32,50898
affine function,50898
post-democracy,50898
gender binary,50898
Democratic Party,50898
silver bullet,50898
AdhereR,50898
Bipalium,50898
Electronic Dance Music,50898
EURECA,50898
canonical quantization,50898
Disconnection,50898
Diagnosis-Related Groups,50898
tosylhydrazone,50898
electrochemical gradients,50898
Didymella bryoniae,50898
residual set,50898
Nancay Radio Telescope,50898
emerging infectious disease,50898
Hibernate,50898
methylazoxymethanol,50898
Perturbation methods,50898
difluorocarbene,50898
Micronesian islands,50898
instruction set,50898
co-occurrence matrix,50898
tricubic interpolation,50898
Potato spindle tuber viroid,50898
supersymmetry algebra,50898
system justification theory,50898
knowledge building,50898
Feynman graph,50898
Max Planck Gesellschaft,50898
NVIDIA GeForce 8800 GTX,50898
economic inquiry,50898
statistical dependency,50898
scincine,50898
Scelotes,50898
daily politics,50898
Transmission Electron Microscopy,50898
disassociate,50898
South India,50898
safely managed,50898
botulism,50898
Nyon,50898
Laguerre polynomials,50898
Hyperlink,50898
monoisotopic,50898
Quechua,50898
syllable-timed,50898
stot,50898
Cyclotron resonance,50898
timelag,50898
gender revolution,50898
Ecological study,50898
quasi-stellar object,50898
Kunene,50898
RML,50898
inkjet printing,50898
AnyLogic,50898
Minute ventilation,50898
United Nations Human Rights Council,50898
error term,50898
BAs.,50898
algebraic semantics,50898
burn scar contracture,50898
dive computer,50898
sunspot equilibria,50898
multigravida,50898
neutral SMase,50898
slang,50898
sahuli,50898
Belfast,50898
blunted affect,50898
Eurasian griffon,50898
Ti-6Al-7Nb,50898
error variable,50898
QSR International,50898
antithyroid drug,50898
ArgoUML,50898
Neurological disorder,50898
Gothic,50898
central Gujarat,50898
Joker,50898
strict liability,50898
power jets,50898
medical residencies,50898
Random Group,50898
universal health care,50898
creosote,50898
outpatient centers,50898
sympathetic cooling,50898
Narrative transportation,50898
Image resolution,50898
parable,50898
actor network theory,50898
Neoarchaean,50898
Chipinge district,50898
Bas-Rhin,50898
legal capital,50898
Six articles,50898
consistency strength,50898
Six5,50898
Gabriel Monod,50898
WSLS,50898
contaminated blood products,50898
PEIA,50898
Mott transition,50898
environmentalist,50898
Eurasian steppe,50898
Irciniidae,50898
PCI bus,50898
ethylene glycol monoethyl ether,50898
Elliptic flow,50898
chytridiomycosis,50898
KIWA,50898
Protein precipitation,50898
tetracyclin,50898
Stress urinary incontinence,50898
non-essential amino acid,50898
Tropilaelaps clareae,50898
rps16,50898
Freemasonry,50898
non-wandering set,50898
Hopfield network,50898
Warao,50898
catachresis,50898
polar filament,50898
BOOTES,50898
dapagliflozin,50898
Q33,50898
de Sitter group,50898
multinomially distributed,50898
L'Arche,50898
vegetable ivory,50898
postcolonial literature,50898
Southern France,50898
escape velocities,50898
presheaf,50898
East Province,50898
SFAS 157,50898
Poisson structure,50898
bacterial death,50898
Finn,50898
soda lake,50898
Bear Gulch Limestone,50898
calcium pyrophosphate dihydrate,50898
tridecane,50898
interferon gamma release assay,50898
S-matrix approach,50898
globular star clusters,50898
Heimerl,50898
Penelope Maddy,50898
Cue reactivity,50898
Beach nourishment,50898
Cotopaxi province,50898
7 July 2005,50898
Vorarlberg,50898
Snellen chart,50898
primitive bodies,50898
Jules Romains,50898
Early Access,50898
seismic observations,50898
B-mode imaging,50898
antitussive,50898
PM-2,50898
superconducting qubits,50898
promyelocytic leukemia zinc finger,50898
solanaceae,50898
9mm,50898
Heilbronn,50898
Footwashing,50898
The Party,50898
Pospiviroidae,50898
granular activated carbon,50898
part-of-speech,50898
proof-theoretic strength,50898
jump process,50898
puffinus,50898
The beta band,50898
isobaric labeling,50898
diabase,50898
Pseudoperonospora cubensis,50898
Isernia,50898
orographic lift,50898
Elizabethan,50898
Amsterdam metropolitan area,50898
millikelvin,50898
white-fronted geese,50898
topologically conjugate,50898
BRCA1 protein,50898
Newborough,50898
Bodega,50898
Galar,50898
Caprivi,50898
SALT,50898
timescape,50898
Novibipalium,50898
blackmail,50898
Lophiostoma,50898
afferent activity,50898
Salvador de Madariaga,50898
epithalamic,50898
radiation hard,50898
De-escalation,50898
tagua nut,50898
monarchist,50898
wind shear,50898
painkiller,50898
metal cluster,50898
ethmoidectomy,50898
commercial off-the-shelf,50898
streaming instabilities,50898
stator,50898
SeBa,50898
pegaptanib,50898
Gail,50898
pex6,50898
6-hydroxyflavone,50898
fixed point set,50898
Manicaland Province,50898
Rosicrucianism,50898
Thomas Vinterberg,50898
"Lincoln, RI",50898
V(D)J recombination,50898
Ricci curvature,50898
Jaeger,50898
radio lobe,50898
griffithsin,50898
catagenesis,50898
total petroleum hydrocarbon,50898
Russian studies,50898
Trillium,50898
standard normal distribution,50898
Okoubaka,50898
central districts,50898
Melocactus intortus,50898
Dinitrogen tetroxide,50898
motionally,50898
CUORE,50898
deep brachial artery,50898
aotearoa,50898
neurotypical,50898
Hopf algebroid,50898
Maarten de Rijke,50898
Ohloh,50898
Data Monitoring Committee,50898
fusiform face area,50898
platelet membrane glycoproteins,50898
exosome component 3,50898
hard radiation,50898
quota method,50898
Strategic Management Journal,50898
Random group,50898
nasal sinuses,50898
canagliflozin,50898
Roche radius,50898
Kadalur,50898
environmental protocol,50898
sunspot,50898
dog flea,50898
Koehler,50898
supratidal zone,50898
agamid,50898
y-intercept,50898
central vowel,50898
matrix string theory,50898
hydroxyapatite deposition disease,50898
norcoclaurine,50898
breath sounds,50898
homoplastic,50898
iamb,50898
computational problem,50898
word-stem completion,50898
The motive,50898
Dactylis glomerata,50898
hepatitis B immune globulin,50898
Wave breaking,50898
avalanche photodiode,50898
Allais paradox,50898
strange star,50898
Metropolitan France,50898
Entwistle,50898
2008 Sichuan earthquake,50898
Santa Monica,50898
decay product,50898
hydatid disease,50898
Humboldt University,50898
environmental ethics,50898
ASMR,50898
Philippia,50898
Hebrew characters,50898
Average cost,50898
hydrous pyrolysis,50898
Nova Cygni 1992,50898
empathy quotient,50898
HR 4796A,50898
Earth-like planets,50898
sunbed,50898
Devensian,50898
Great ape,50898
parse tree,50898
eutectic system,50898
HE 1523-0901,50898
ASCO,50898
optical chopper,50898
Seventh Framework Programme,50898
Percutaneous nephrostomy,50898
Mauna Kea,50898
corporate veil,50898
45 nm,50898
proteogenomics,50898
Gutu district,50898
film director,50898
QSPR,50898
Hindu nationalism,50898
povidone-iodine,50898
c11orf30,50898
adaptive quadrature,50898
Tychonoff space,50898
Santa Gertrudis,50898
Pleospora,50898
Aesernia,50898
anti-Semite,50898
Ketorolac,50898
Genital warts,50898
liquid motion,50898
Grit,50898
tablet magazine,50898
Oshana,50898
Henri Pirenne,50898
Gervais,50898
Kara,50898
Rakai,50898
Irish Government,50898
Recombinant protein,50898
p40phox,50898
Ogren,50898
unit root test,50898
One parent families,50898
white flies,50898
Restriction Fragment Length Polymorphism,50898
BBS12,50898
Coxsackie virus,50898
Weka,50898
MIMIR,50898
Microfiber,50898
Hacettepe,50898
Fungal isolates,50898
radical cyclisation,50898
all-electric,50898
Penzberg,50898
Forecast error,50898
Galactic longitude,50898
checkpoint inhibition,50898
coclaurine,50898
Entada gigas,50898
Zermelo,50898
Herbicide,50898
Urb.,50898
full blood count,50898
anaerobic conversion,50898
Gigabit Ethernet,50898
revenge tragedy,50898
microtomography,50898
sporogony,50898
Public debt,50898
first-order condition,50898
Jacqueline Rose,50898
high-definition video,50898
generic function,50898
WorldView-2,50898
dynamic scattering,50898
money velocity,50898
hydrophobin,50898
major Taylor,50898
COTS,50898
Attic,50898
Chromosomal anomalies,50898
peak rating,50898
Nightshift,50898
Guibemantis,50898
The Nurses,50898
Tayside,50898
Extensible Markup Language,50898
Grashof,50898
Bioaerosol,50898
Smale horseshoe,50898
epigenetic landscape,50898
PowerPC,50898
HXD,50898
Cardiac dysrhythmias,50898
loom,50898
Carnegie Stage,50898
"Little Rock, Arkansas",50898
Sleep Disorder,50898
stress-timed,50898
VRK1,50898
communal roost,50898
heat shock factor,50898
ecofacts,50898
Norma,50898
sr.,50898
Lehoux,50898
slow sand filtration,50898
Europhile,50898
Baltic Provinces,50898
mouse systems,50898
motion illusion,50898
star candidate,50898
horizontal inequality,50898
reedswamp,50898
Caribbean Community,50898
Johan Huizinga,50898
nicotine replacement,50898
Driel,50898
spectral class,50898
naphthalenedisulfonate,50898
strain echocardiography,50898
standpoint theory,50898
taurolidine,50898
Piper guineense,50898
psychoanalyst,50898
Negative thermal expansion,50898
European corn borer,50898
ultra-high-energy cosmic ray,50898
Nectandra,50898
Ketosis,50898
shift-work,50898
echinococcus,50898
phosphoribosylpyrophosphate,50898
Large Synoptic Survey Telescope (LSST),50898
autism-spectrum quotient,50898
piquindone,50898
Health For All,50898
Classicism,50898
EGR2,50898
Corinthian,50898
sustainable competitive advantage,50898
Alpaca,50898
Arabian peninsula,50898
hydroperoxide lyase,50898
Lilium,50898
post-war Britain,50898
Hipparion,50898
E2f1,50898
stem group,50898
Wiener process,50898
Rec8,50898
LIBOR market model,50898
phosducin,50898
SLC16A1,50898
Testicular sperm extraction,50898
segmental duplication,50898
extended aeration,50898
Duc de Sully,50898
CTTNBP2,50898
Paria Peninsula,50898
Monterey formation,50898
J2EE,50898
Elizabeth I,50898
nidicolous,50898
cederberg,50898
shockable rhythm,50898
visual dictionary,50898
Sw.,50898
Sarat Maharaj,50898
lacewings,50898
CBS Fungal Biodiversity Centre,50898
Bbs12,50898
Hebrew numerals,50898
trochee,50898
alpha-1-microglobulin,50898
TP-AGB,50898
convex optimization,50898
Ti II,50898
Girardia tigrina,50898
offline storage,50898
Johan van Benthem,50898
bicorne,50898
gadolinium contrast,50898
dysmorphic feature,50898
ammonium oxalate,50898
Hermione,50898
catalyst support,50898
aromatherapy massage,50898
GJA5,50898
Nuclear magnetic resonance spectroscopy,50898
presheaf category,50898
Atalaya,50898
Acharya,50898
Emotional stress,50898
great trochanter,50898
laudanosine,50898
STX2,50898
x-ray photoelectron spectroscopy,50898
diatonic,50898
SIX5,50898
ristocetin-induced platelet aggregation,50898
F-statistics,50898
renormalize,50898
Deep venous thrombosis,50898
Ostrinia nubilalis,50898
tailwind,50898
Paul Valery,50898
Antithrombin III,50898
Suzuki-Miyaura coupling,50898
regadenoson,50898
pregel,50898
linear operator,50898
thiyl,50898
Hipparchia semele,50898
Nt1,50898
inalienable possessions,50898
system operator,50898
Torque Teno virus,50898
Maritime transport,50898
type-safe,50898
voluntary medical male circumcision,50898
Ehr.,50898
domain theory,50898
Protein translocation,50898
Gunther,50898
90Y,50898
Northridge,50898
GJ 1214b,50898
QoI,50898
Wissenschaftszentrum Berlin,50898
slipstream,50898
Melanie Klein,50898
synthetic fiber,50898
Futuro,50898
calcium citrate,50898
case formulation,50898
D-lyxose,50898
Marshall Plan,50898
OPM,50898
immunoreceptor tyrosine-based activation motif,50898
Crux,50898
swap rates,50898
Fluvial terrace,50898
Plasmapheresis,50898
global climate regime,50898
Human Capital Theory,50898
Coumestrol,50898
Yaxcopoil,50898
tristimulus colorimeter,50898
Clinical genetics,50898
cowpea chlorotic mottle virus,50898
structural chemistry,50898
neoliberals,50898
circulating endothelial cell,50898
Inner Niger Delta,50898
knowledge revolution,50898
Solid-state nuclear magnetic resonance,50898
insect wing,50898
time discipline,50898
Nuss procedure,50898
Sinusitis,50898
Sierra del Cuera,50898
Model predictive control,50898
Cavalier King Charles spaniel,50898
Alport,50898
positive systems,50898
intrinsic dimension,50898
Storm,50898
SLC25A19,50898
The Scarf,50898
IRESSA,50898
Ataxia telangiectasia,50898
polar bond,50898
Corpus Aristotelicum,50898
clickbait,50898
Design space exploration,90755
Trimethyl,50898
barX,50898
D 63,50898
existential psychology,90759
TV Tropes,50898
ATIS,50898
Social networking site,50898
SugarScape,50898
micrometeorology,50898
division ring,50898
emissions scenarios,50898
Vishnu,90767
manga,50898
isoflavonoid,50898
assisted reproduction technologies,50898
dibenzodiazepine,50898
tokenism,50898
Guanidinoacetate N-methyltransferase,50898
Linear extension,50898
monogastric,50898
VEGFR1,50898
triptych,50898
Life insurance,50898
ruff,50898
high-efficiency particulate air,50898
ciclosporin A,50898
Scientific realism,50898
stationary sequence,50898
Lasagna,50898
nanofabrication,50898
geographic targeting,50898
Millennium Declaration,50898
typological overview,50898
mitochondrial encephalomyopathies,50898
LIFFE,50898
Adele Goldberg,50898
public key cryptography,50898
Granisetron,50898
cyclobutanes,50898
Sesame Street,50898
total dissolved solids,50898
solent,50898
Travancore,90798
The human face,50898
ill posed,50898
Apaziquone,50898
astrologer,50898
Creatine phosphate,50898
Nishiwaki,50898
Eduardo Mondlane,50898
gastroschisis,50898
Conus,50898
content delivery networks,50898
Market Abuse,50898
holy war,50898
late Neoproterozoic,50898
Osteopetrosis,50898
ODB,50898
small-world phenomenon,50898
Exchange rate,50898
Glover,50898
Tioguanine,50898
Dislocation,50898
Philo,50898
Oneirocritica,90820
Matmar,50898
Obscure,50898
Mental illness,50898
The intermediary,50898
Amon,50898
salicylic acids,50898
drag flick,50898
seafloor mapping,50898
Plate tectonic,50898
intrinsically disordered protein,50898
Degenerative disc disease,50898
Susan Strange,50898
machismo,50898
The Fall,50898
conjugated estrogen,50898
fathead minnow,50898
input-output table,50898
Cat-scratch disease,50898
Inner membrane,50898
Ostracoda,50898
Glyphosate,50898
performance domain,50898
Generic drugs,50898
Rectal bleeding,50898
sagittal abdominal diameter,50898
Reinhart Koselleck,90846
retrocausality,90847
MusicBrainz,50898
The chain,50898
Preterm labour,50898
Euclidean traveling salesman problem,50898
tissue kallikreins,50898
Marrakech,50898
scientific realism,50898
nasal septum perforation,50898
Autism spectrum disorders,50898
D.F.,50898
Pyrrole,50898
foal,50898
dynamic Bayesian network,50898
punctured plane,50898
Sulfonic acid,50898
Gingivitis,50898
initial public offering,50898
Retinoblastoma protein,50898
Strombus,50898
Transcranial magnetic stimulation,50898
contraceptive vaginal ring,50898
Paleocene-Eocene Thermal Maximum,50898
ecological indicators,50898
Meningoencephalitis,50898
mode II,50898
linear density,50898
monadic second-order logic,50898
Automatic Speech Recognition,50898
endogenic,50898
moment matrix,50898
ribose-5-phosphate isomerase,50898
network intrusion detection,50898
cervical cerclage,50898
Mestre,50898
African Renaissance,50898
bovine spongiform encephalopathy,50898
conformal manifold,50898
New Englishes,50898
Amoeba,50898
Ibogaine,50898
Hermes experiment,50898
Herman Bavinck,50898
lexical database,50898
alkylidene,50898
tennis shot,90892
Empagliflozin,50898
WBAs,50898
2015 elections,50898
percutaneous tibial nerve stimulation,50898
bevel gear,50898
virial equation,50898
kinetic stabilization,50898
December 2004 tsunami,50898
Double-balloon enteroscopy,50898
gain medium,50898
Douglas bag,50898
experience rating,50898
Enterprise Resource Planning (ERP),50898
Lameness,50898
dental ceramic,50898
Supercomputer,50898
great strides,50898
"Chapman, S.",50898
Diabetic cardiomyopathy,50898
A60,50898
Sirt,50898
beneficial ownership,50898
Williams-Beuren Syndrome,50898
urban open space,50898
fibrodysplasia ossificans progressiva,50898
Polycyclic aromatic hydrocarbon,50898
great auk,50898
Sex steroid,50898
usury,90921
Middle Passage,50898
Self-organized criticality,50898
Organic farming,50898
Barendregt,50898
CaTh,50898
Bacteriophage,50898
Hypovolemia,50898
Transvaginal ultrasound,50898
millus,50898
CLp,50898
maspin,50898
Rondo,50898
Ariston,50898
PUF3,50898
oviducal gland,50898
Neuroreflexotherapy,50898
Prussian blue,50898
DTNA,50898
marabout,50898
self-focusing,50898
zif268,50898
Atacama Desert,50898
SN2,50898
"Green Point, Cape Town",50898
detumescence,50898
trovafloxacin,50898
Procrustean bed,50898
CRIP,50898
sixteen women,50898
program 3,50898
PAX2,50898
ionic dissociation,50898
quasi-judicial,50898
SP-100,50898
scid mice,50898
dry-bulb,50898
MYO6,50898
microchannel plate detector,50898
transcriptional terminator,50898
Foreign Minister,50898
FZD9,50898
co-chaperone,50898
A. meridionalis,50898
Buteo albicaudatus,50898
/film,50898
sleep mode,50898
Nano-,50898
mycoplasma,50898
Syr Darya,50898
Mio,50898
Huisgen,50898
A68,50898
emollients,50898
paleoseismological,50898
Electrical Cardioversion,50898
MAP-2,50898
Hohhot,50898
North-West University,50898
Soil food web,50898
nicotinamide N-methyltransferase,50898
corset,50898
linoleum,50898
L46,50898
Saladoid,50898
Vesicomyidae,50898
attractin,50898
Rogier,50898
1 Peter,50898
tocolytic agents,50898
house fly,50898
DMLS,50898
osteoprogenitor cells,50898
affective labour,50898
Chitra Gajadin,50898
Rollo,50898
DAST,50898
IDAs,50898
Gender role,50898
Data management,50898
AMHR2,50898
spontaneous alternation,50898
subtenon,50898
Greater Germanic Reich,50898
Bivatuzumab,50898
Yekaterinburg,50898
BCG vaccine,50898
DIBAL-H,50898
U-band,50898
LMO2,50898
artificial transcription factors,50898
CKCS,50898
SPIN,50898
goal attainment scaling,50898
mediastinal emphysema,50898
klebsiella,50898
replica method,50898
Eticlopride,50898
netropsin,50898
Bambusa,50898
dimension function,50898
LNP,50898
De Meern,50898
brasiliana,50898
Machismo,50898
isometric exercise,50898
TBL2,50898
Meloxicam,50898
Sensible heat,50898
total sports,50898
Caracas,50898
NaIO3,50898
genome walking,50898
human rights review,50898
VR training,50898
SPIN Model Checker,50898
Musca domestica,50898
gaussian filter,50898
CAMERA,50898
LAu,50898
frontostriatal circuit,50898
omentectomy,50898
intervention theory,50898
neuropharmacology,50898
catalytic chain transfer,50898
interior point method,50898
STEC-HUS,50898
fully charged,50898
Dakar,50898
SD 73,50898
cocamidopropyl betaine,50898
antiterminator,50898
intracranial hematoma,50898
autocatalysis,50898
massive damage,50898
iopromide,50898
FMO3,50898
hydrosere,50898
short gastric veins,50898
Ventimiglia,50898
exclusive economic zone,50898
HLA-B51,50898
zero-copy,50898
KaiC,50898
The STRAD,50898
arbutin,50898
Spondylosis,50898
perchloroethylene,50898
b-factor,50898
non-ribosomal peptide synthetase,50898
InGaAsP,50898
subglottis,50898
de-territorialization,50898
Papilloma,50898
LDX,50898
type IIC,50898
respiratory volume,50898
high jump,50898
gammaridean,50898
selective serotonin re-uptake inhibitor,50898
closed-loop controller,50898
glacial rebound,50898
Hondius,50898
underweight person,50898
endorheism,50898
2-arachidonylglycerol,50898
Skellam,50898
"brother, sister",50898
SHFM1,50898
Microgram,50898
ADAMTS3,50898
Carrara,50898
Spinal manipulation,50898
Western rural,50898
American Kestrel,50898
urocortin II,50898
Thyasiridae,50898
Paraffin wax,50898
biochanin A,50898
R-13,50898
genital masculinization,50898
IL11RA,50898
Falco sparverius,50898
belle epoque,50898
Fourier Transformation,50898
futile care,50898
Lucinidae,50898
"Time, time",50898
neo-Calvinists,50898
nasopalatine,50898
sparfloxacin,50898
Madelung,50898
norbuprenorphine,50898
hydrothermal mineralization,50898
steric shielding,50898
shamanism,50898
dibutylphthalate,50898
descriptive ethics,50898
salars,50898
Endothelium,50898
cD1a,50898
Hamar,50898
pachymetry,50898
Monterey Formation,50898
Leica,50898
ferrichrome,50898
atonal,50898
Alaskozetes antarcticus,50898
cobalt-chromium alloy,50898
shiga toxin,50898
tympanometry,50898
B. rapa,50898
soda lime,50898
Ostrom,50898
IKONOS,50898
Weser,50898
fixing nitrogen,50898
Self-blame,50898
national achievement test,50898
epidermal thickening,50898
direct imagery,50898
KIIs,50898
ascending paralysis,50898
RasGRF1,50898
TT3,50898
Hemocue,50898
switch reference,50898
benzodioxan,50898
Iod,50898
boiler,50898
bladder training,50898
Addison-Wesley,50898
Ethinylestradiol,50898
Dasra,50898
Meissa,50898
Sengstaken-Blakemore tube,50898
P46,50898
heel-to-toe,50898
Inner Delta,50898
D1-type,50898
LAF,50898
Hibernia,50898
SAT1,50898
cataclastic,50898
9-aminoacridine,50898
Pf5,50898
Samolus,50898
ector,50898
alkali olivine basalt,50898
Lavoisier,50898
Azu,50898
fault creep,50898
NT-4,50898
Cdc45,50898
DWML,50898
Clethrionomys glareolus,50898
Landsat 8,50898
early numeracy,50898
Daban,50898
[NH4,50898
HEMO,50898
deep cervical lymph nodes,50898
isograft,50898
fore-arc,50898
B 31,50898
Luteolin,50898
egfr,50898
conotoxin,50898
Self-administration,50898
H-15,50898
supervisory control theory,50898
Aplysia depilans,50898
SAT2,50898
2Br,50898
randomization test,50898
Khanh Hoa,50898
argentina,50898
dead leaves,50898
EIF2C2,50898
Stephanov,50898
chemoluminescence,50898
upper gastrointestinal hemorrhage,50898
The goats,50898
Keita,50898
OFR,50898
TOBI,50898
Cedrosan,50898
ATOH1,50898
isostatically compensated,50898
J-pouch,50898
impact strength,50898
UPPAAL,50898
meat proteins,50898
ryegrass,50898
nicotinic antagonists,50898
CRLF1,50898
A 38,50898
thyroid follicle,50898
arche,50898
NB1,50898
ibogaine,50898
Kolbeinsey Ridge,50898
mediodorsal thalamus,50898
Typhon,50898
capillary sprouts,50898
fern allies,50898
sedimentary facies,50898
Southeast region,50898
cannabis tea,50898
Porphyry,50898
Settara,50898
Granulometry,50898
KBP,50898
dichloroethylene,50898
FMO1,50898
zilpaterol,50898
Heinz Kohut,50898
Mauritians,50898
BubR1,50898
Lamellibrachia,50898
Buffalo,50898
glutamate carboxypeptidase,50898
Benzbromarone,50898
triangular face,50898
Argentine,50898
excitable system,50898
vocal fry,50898
JNJ-5207852,50898
KCNMA1,50898
bivatuzumab mertansine,50898
HADHSC,50898
Harvard Business Review,50898
DNA construct,50898
integerrima,50898
noribogaine,50898
Eustachian tube,50898
Cell membrane,50898
diamicton,50898
antitoxin,50898
BiP/GRP78,50898
medical nutrition therapy,50898
leukemia cutis,50898
phytochemistry,50898
IF-2,50898
Myeloid leukemia,50898
triceps brachii muscle,50898
MATH1,50898
pediatric exclusivity,50898
exponential polynomial,50898
distilled spirits,50898
Keratosis,50898
sandpaper,50898
Coomassie blue,50898
DNA primase,50898
alpha-enolase,50898
gonochoric,50898
6 L,50898
model inversion,50898
Crocidura,50898
ERCC3,50898
QJ,50898
high-grade metamorphic rock,50898
EP1 receptor,50898
apotemnophilia,50898
incisive foramen,50898
Zwan,50898
RFC2,50898
CFP-10,50898
GOGAT,50898
tomy,50898
VLD,50898
ASNS,50898
LiBH4,50898
Salar de Atacama,50898
Escheria,50898
non-specific interstitial pneumonia,50898
dexrazoxane,50898
over-dispersion,50898
Social-Ecological,50898
Rh(D),50898
Treponema denticola,50898
octylphenol,50898
Portal vein thrombosis,50898
histone acetyl transferase,50898
visual reinforcement audiometry,50898
hippocampal sulcus,50898
Voice therapy,50898
ping-pong kinetic mechanism,50898
FEMAP,50898
uroepithelial,50898
abdominal compartment syndrome,50898
Chloroethylclonidine,50898
Tiron,50898
Microcephalin,50898
Soil health,50898
avian flu,50898
LNGFR,50898
tensile testing,50898
tone languages,50898
C151,50898
Neo,50898
palor,50898
E.S.P.,50898
double-logarithmic,50898
rds,50898
spinal administration,50898
Q-10,50898
efaroxan,50898
modified radical mastectomy,50898
heterotroph,50898
lithosphere-asthenosphere boundary,50898
Dicoumarol,50898
intermittent explosive disorder,50898
zygotically,50898
Brun,50898
GIRK,50898
Norm group,50898
suicide intervention,50898
urine sodium,50898
modum,50898
EIG,50898
JCL,50898
Sine,50898
Beyers Naude,50898
QS21,50898
Dh,50898
Tarceva,50898
bacteriophage T7,50898
siboglinid,50898
fiber optics,50898
Dynorphin A,50898
MTSS1,50898
superior trunk,50898
positive K,50898
wet bulb temperature,50898
plant nutrients,50898
Grainstone,50898
CUBA,50898
Singapore English,50898
clomifene,50898
Serovar,50898
NEC group,50898
Emilia Romagna,50898
TEAD4,50898
midblastula transition,50898
clostridia,50898
Context-dependent memory,50898
uterotubal junction,50898
supercycle,50898
Songkla,50898
Benzodiazepine dependence,50898
common platform,50898
Pro7,50898
nolatrexed,50898
hospital pharmacies,50898
Cdh11,50898
Brunnstrom,50898
Xeloda,50898
Hyperemia,50898
cdc6,50898
c-Flip,50898
apraxic,50898
epidural administration,50898
Pierre Shale,50898
TIO,50898
propanolol,50898
cryptate,50898
mnemonic abilities,50898
Herwen,50898
speleologic,50898
cumene,50898
MOBA,50898
mcm5,50898
arthroconidia,50898
Endometrial biopsy,50898
affective psychosis,50898
cortison,50898
reverse curve,50898
BHLH,50898
homo-oligomer,50898
Somerset,50898
Shenyang,50898
benzoquinones,50898
emetogenic,50898
pik3ca,50898
TNFRSF11A,50898
Ill blood,50898
GS group,50898
Glucuronide,50898
crossbedded,50898
erythropoietin receptor,50898
The mound,50898
HEPA,50898
CD-I,50898
appressoria,50898
Methicillin,50898
procaspase-9,50898
Hong Kong English,50898
monadic second-order,50898
Fucidin,50898
Cyp2B6,50898
Sustanon,50898
EMX2,50898
pyloric sphincter,50898
phosphatome,50898
harmane,50898
GPR109B,50898
corneal perforation,50898
sumoylated,50898
NFLE,50898
Hemoglobin A,50898
Methoxyamine,50898
FOAF,50898
High Representative,50898
south-western Australia,50898
2-hydroxybenzaldehyde,50898
microvascular reconstruction,50898
CPCCOEt,50898
water science,50898
Discourse Studies,50898
Selectfluor,50898
bad religion,50898
existentials,50898
polycaprolactone,50898
enlightened self-interest,50898
language politics,50898
Scriptural reasoning,50898
Jatibarang,50898
natural philosophy,50898
fourth dimension,50898
Minolta,50898
hydridic,50898
fms-like tyrosine kinase 3,50898
familial Mediterranean fever,50898
absorptance,50898
Karl Shapiro,50898
winter storm,50898
NC100,50898
non-receptor tyrosine kinase,50898
stable attractor,50898
optimization theory,50898
public key,50898
planned economy,50898
intravenous drug user,50898
polyphasic sleep,50898
durin,50898
Plant Ontology,50898
demand response,50898
genetic imprinting,50898
Thomas Reid,50898
Tiberian Hebrew,50898
e-business,50898
Just In Time,50898
bibliophile,50898
SRPT,50898
craniopagus,50898
Kristine Bonnevie,50898
dental porcelain,50898
parvocellular pathway,50898
Artemidorus,90820
pure country,50898
GIA,50898
flavor components,50898
Ovotestis,50898
mobile computing,50898
breech birth,50898
video editing,50898
amende honorable,50898
European Cenozoic rift system,50898
alka,50898
iris-fixated,50898
Data representation,50898
Perthes disease,50898
dangerous climate change,50898
fascist,50898
Christian Democracy,50898
wide area network,50898
venereology,50898
family-centred care,50898
veterinary school,50898
Asian Tigers,50898
spindle cell squamous cell carcinoma,50898
sodium iodide (NaI),50898
OSBP,50898
educational technology,50898
fallibilist,50898
M67,50898
clientelist,50898
Veronal,50898
modal operator,50898
Mostagedda,50898
artificial society,50898
Attachment Q-sort,50898
Car-Parrinello method,50898
contractarian,50898
Poststructuralist,50898
umbral,50898
urban ecosystems,50898
Gresham,50898
Lax operator,50898
470 male,50898
Purdue Pegboard test,50898
Lviv,50898
discursive formations,50898
augmented assignment,50898
district attorney,50898
Joel Robbins,50898
Big Pharma,50898
National Comorbidity Survey,50898
Flandria,50898
dorsal stream,50898
Murayama,50898
Porri,50898
environmental resource management,50898
port authority,50898
Endometrial Intraepithelial Neoplasia,50898
focal brain injuries,50898
aminocoumarin,50898
microsociological,50898
Roman roads,50898
Sustained Release,50898
octave band,50898
voltage-dependent calcium channel,50898
polar jet,50898
census block,50898
Spatial Economic Analysis,50898
chronic critical illness,50898
OMTP,50898
haemoglobinuria,50898
L-xylose,50898
endogenous growth theory,50898
codependency,50898
NASDAQ,50898
cat-scratch disease,50898
p-block,50898
What If,50898
minicolumns,50898
convex programming,50898
ferropericlase,50898
1-propanethiol,50898
The specialist,50898
Strassbourg,50898
hypomagnesaemia,50898
relative intensity noise,50898
2gb,50898
Enhanced Geothermal System,50898
synaptic boutons,50898
Woodbury,90755
aromatase deficiency,50898
spatial light modulator,50898
Pinguinus impennis,50898
reifications,50898
Belongingness,50898
Sowerby,50898
euro coins,50898
Dystroglycan,50898
Trabeculae,50898
posterior triangle,50898
cyclothiazide,50898
CDH11,50898
central spindle,50898
Pao2,50898
bicuspid valve,50898
Mannose receptor,50898
psychodynamics,50898
New English,50898
Slc25a19,50898
ferrochelatase,50898
postural imbalance,50898
CRHR1,50898
ACTN4,50898
Hypnos,50898
monocarboxylate transporter (MCT) 8,50898
left side brain,50898
antivirulence,50898
bassanite,50898
bioarchaeological,50898
frequency scaling,50898
methane monooxygenase,50898
Erbitux,50898
Kyrgyz Republic,50898
caffeoyl,50898
mytilid,50898
Bradycardia,50898
Usan,50898
plain x-ray,50898
Fio2,50898
Thioperamide,50898
D-ribulose,50898
Antitoxin,50898
Predictable,50898
hK4,50898
DDEF1,50898
M-12,50898
Honduran,50898
Intrauterine device,50898
A. arenaria,50898
Pandora,50898
T-19,50898
phytoplasma,50898
MIDS,50898
furocoumarins,50898
Heavy metals,50898
KOND,50898
TCr,50898
dolipores,50898
Shocked quartz,50898
adv.,50898
WTND,50898
epimerisation,50898
Lubrication,50898
industrial decline,50898
ToBI,50898
NDUFC2,50898
oesophageal varices,50898
I-126,50898
in-gel digestion,50898
Medial Temporal Lobe,50898
MTT Assay,50898
autotroph,50898
Caracara,50898
DC coupled,50898
The ascent,50898
Moffat,50898
mirabilite,50898
S-Adenosylmethionine,50898
I-130,50898
drug disposal,50898
TM2,50898
springwater,50898
Jura Mountains,50898
enteric fermentation,50898
watchtower,50898
aminoacyl tRNA synthetase,50898
BCAR3,50898
Tymoviridae,50898
rubisco,50898
mU*,50898
ALG8,50898
thyroid hormone receptors alpha,50898
thematic map,50898
anti-glomerular basement membrane disease,50898
Peedee,50898
bioaccumulating,50898
Imidazole,50898
Belemnite,50898
Lian,50898
320A,50898
Octanal,50898
Chelerythrine,50898
"2,6-dimethoxyphenol",50898
Intra-rater reliability,50898
seismic profiling,50898
Residence time,50898
Single Nucleotide Polymorphism,50898
HMGA1,50898
Betadine,50898
MTHFR 677T,50898
dopa decarboxylase,50898
Photoreceptor,50898
photoinitiator,50898
URI,50898
Plasma exchange,50898
haematological disorders,50898
blodite,50898
CLEVER,50898
sulprostone,50898
hif-1 alpha,50898
rectangular hyperbola,50898
glauberite,50898
glial scarring,50898
relief energy,50898
cytotoxins,50898
Fusulinida,50898
enhanced weathering,50898
MZM,50898
epitope spreading,50898
IL-15 receptor,50898
hater,50898
Aufbau principle,50898
ferrocyanide,50898
rubidium fluoride,50898
Scholz,50898
ulexite,50898
dealkylation,50898
pneumococcal polysaccharide vaccine,50898
Vienna Basin,50898
shear storage,50898
HI gas,50898
steady-state model,50898
Tonstad,50898
Fe65,50898
Dindigul,50898
methoxyamine,50898
malonate group,50898
pinnoite,50898
Thin Solid Films,50898
P. americanus,50898
Enzyme Commission number,50898
Norbert Elias,50898
Identity theory,50898
bicyclobutane,50898
zero-day,50898
ballet technique,50898
beta-adrenergic antagonist,50898
JIT,50898
revolute joint,50898
West Sulawesi,50898
Jini,50898
Linguistic Inquiry,50898
click-through rate,50898
Generation time,50898
The CLASH,50898
carboplatinum,50898
goserelin acetate,50898
repast,50898
Implant Stability Quotient,50898
product positioning,50898
lexical resource,50898
Ludwig Boltzmann,50898
Oyama,50898
dimethylethanolamine,50898
Isis,50898
pirated content,50898
corporate pollution,50898
Hardt,50898
maleimides,50898
Meteo-France,50898
core electron,50898
dense-in-itself,50898
Johnson Space Center,50898
four-frequency,50898
Zierikzee,50898
recursive type,50898
theistic,50898
N-AcetylAspartic Acid,50898
boron neutron capture therapy,50898
Avonmouth,50898
Traditional Chinese Medicine (TCM),50898
Valium,50898
spaniel,50898
Stefan problem,50898
convenience yield,50898
carotid-cavernous sinus fistula,50898
direct metal laser sintering,50898
Salina,50898
triplestore,50898
vision science,50898
Snoezelen,50898
Tamar Szabo Gendler,50898
Middle Egypt,50898
Historical earthquakes,50898
huttonite,50898
Sunday shopping,50898
Mediterranean forest,50898
NAUTILE,50898
tetracycline antibiotic,50898
four-panel,50898
TIMSS,50898
binary categorization,50898
hand-coding,50898
biomimetic synthesis,50898
ovomucin,50898
dream interpretation,50898
bent geometry,50898
acoustical data,50898
paleobiological,50898
allograph,50898
seismic hazard,50898
Coercion Act,50898
Millennium Development Goals (MDG),50898
simple energy,50898
Cartesian dualism,50898
Bengali Muslim,50898
Tongan,50898
Zotino,50898
spectral emission lines,50898
arctic air,50898
Tnfsf4,50898
Paul Walther,50898
tiagabine,50898
Papuan languages,50898
bone meal,50898
similarity matrix,50898
import quota,50898
proximity sensor,50898
generalized solution,50898
refract,50898
Sethi,50898
Eleanor Roosevelt,50898
aerial photograph,50898
futures contract,50898
backtest,50898
Pulitzer Prize,50898
The applicant,50898
meatus,50898
upper Rhine Graben,50898
Canon law,50898
ventriloquist,50898
non-parametric model,50898
reservation price,50898
coccidian,50898
AsO,50898
Neologism,50898
Curcuma longa,50898
renal glucose reabsorption,50898
John Dee,50898
Purdue,50898
m40,50898
EDAN,50898
metallogenic,50898
subtropical jet stream,50898
TER.,50898
TRAF3,50898
deuterated solvents,50898
Iliac crest,50898
nonlinear dynamical systems,50898
fusulinid,50898
tidal tail,50898
Froland,50898
parathyroid hormone receptor 1,50898
IQ domain,50898
Inulin,50898
celts,50898
cerebrosides,50898
neuropilin,50898
chaperon,50898
Polygonum,50898
Kai1,50898
NFATc4,50898
Epoxidation,50898
TPD52,50898
Circumpolar Deep Water,50898
EIF3S6,50898
MEF2c,50898
WAGR,50898
knockout rat,50898
biochanin A 7-O-beta-D-glucoside,50898
HNT,50898
phyllodes tumor,50898
Isoetes,50898
CD11C,50898
STI571,50898
Major trauma,50898
hexestrol,50898
pentylenetetrazole,50898
Siebengebirge,50898
Chagas' disease,50898
L-Glutamine,50898
Vogelsberg,50898
Selandian,50898
imgatuzumab,50898
end-Cretaceous,50898
Westerwald,50898
"Kimberley, Northern Cape",50898
copyright infringement,50898
functional skills,50898
agency problem,50898
orthogonal complement,50898
plant-based diet,50898
Amyloids,50898
cranial capacity,50898
active set,50898
Bracara Augusta,50898
Octopus vulgaris,50898
plurality voting,50898
marine insurance,50898
Isospora belli,50898
Continuous operation,50898
Diminishing marginal utility,50898
ecophenotypic variation,50898
morphophonological,50898
Schelde,50898
TVRI,50898
Dorsal root ganglion,50898
zonular fibres,50898
electricity transmission,50898
pushrod,50898
cholesterol profile,50898
poverty map,50898
granular gas,50898
VU university medical center,50898
N 15,50898
Inductively coupled plasma mass spectrometry,50898
folate biosynthesis,50898
Khabur River,50898
Appelscha,50898
raingauge,50898
Wetting,50898
Sagnac interferometer,50898
objective synonym,50898
consumer-to-consumer,50898
RUQ,50898
Monopoly,50898
spark spread,50898
Frankfurt Stock Exchange,50898
volcanic lake,50898
WeChat,50898
human gastrointestinal tract,50898
colonic irrigation,50898
weatherization,50898
Nucleolin,50898
Frank-Starling law,50898
"San Carlos, California",50898
electoral manifestos,50898
sheeted dykes,50898
path-ordered exponential,50898
Alveolar bone,50898
Negri,50898
antiamoebin,50898
price system,50898
Jenkins Activity Survey,50898
periorbita,50898
anthracycline extravasation,50898
lipophosphoglycan,50898
fossa navicularis,50898
Dindigul District,50898
Monad,50898
bistetrazole,50898
text analytics,50898
Performance management,50898
Landsat 5,50898
Model-driven engineering,50898
Reigate,50898
LAND System,50898
Causality,50898
zinc bromide,50898
participatory GIS,50898
subacute sclerosing panencephalitis,50898
Robust regression,50898
John Hawthorne,50898
traffic engineering,50898
topological dimension,50898
Kolbeinsey,50898
Devotio Moderna,50898
benthic ecology,50898
Twaron,50898
casuistry,50898
enyne,50898
Marram grass,50898
Pays de Herve,50898
Surfactant protein D,50898
prims,50898
key signature,50898
Gross Regional Product,50898
Maximum Likelihood Method,50898
H2NO,50898
critical software,50898
W.E.,50898
MK14,50898
purine analogue,50898
RU3(CO)12,50898
ischemic cell death,50898
dextrorphan,50898
cyclin dependent kinase inhibitor,50898
RRM2,50898
3-methoxymorphinan,50898
cyclic mass,50898
tubercule,50898
FGF15,50898
Remagen,50898
Godesburg,50898
water restriction,50898
libertarianism,50898
group rights,50898
Galician,50898
Dodge,50898
malignant mixed tumor,50898
Schur class,50898
Jon Kleinberg,50898
iBu,50898
Natural gas,50898
max-plus algebra,50898
thelytoky,50898
Loss tangent,50898
AKC,50898
binary operation,50898
Roosevelt,50898
cardinal function,50898
KKMS,50898
choanal atresia,50898
Blendle,50898
Steenbergen,50898
"Nashville, TN",50898
diquark,50898
software libraries,50898
Bresse,50898
interleukin-1 family,50898
cafetiere,50898
Green River,50898
Col4a1,50898
neonatal tetanus,50898
torsion spring,50898
urethrotomy,50898
abductor digiti minimi,50898
D60,50898
endorheic,50898
solar constant,50898
Empedocles,50898
Bicoid,50898
Ariola,50898
moving average process,50898
hadronize,50898
hypodermoclysis,50898
Market depth,50898
osmo,50898
joint implementation,50898
Westminster,50898
Midday,50898
STC2,50898
long scale,50898
"dementia, vascular",50898
Shewanella putrefaciens,50898
Brunswik,50898
trita,50898
photobiomodulation,50898
root nodule,50898
CES2,50898
surgical knot,50898
Rehmannia glutinosa,50898
hoof,50898
7j,50898
sand lance,50898
Psychlit,50898
Asturica Augusta,50898
Murray-Darling,50898
induction agent,50898
key authentication,50898
Vleuten-De Meern,50898
chemical yield,50898
globally asymptotically stable,50898
transformation efficiency,50898
water tunnel,50898
space complexity,50898
nostril,50898
ionic interaction,50898
Pf3,50898
Puritan,50898
D200,50898
foramina,50898
marabouts,50898
indemnity,50898
sea quarks,50898
dilatometer,50898
Hieroglyphica,50898
neurofascin,50898
Dutch Civil Code,50898
sensory-deprived,50898
decisional capacity,50898
electron beam melting,50898
Disease-modifying antirheumatic drug,50898
Allied Dunbar,50898
mental health law,50898
Ruggles,50898
conceptual graph,50898
The earthworm,50898
thalamocortical projections,50898
Neutrophil elastase,50898
Promax,50898
areal feature,50898
AMSR,50898
Torpedo californica,50898
SWISS-PROT,50898
Turing test,50898
revetment,50898
mammalia,50898
Escondida,50898
Digital radiography,50898
star height problem,50898
depth cues,50898
Sulcus,50898
shaper,50898
drill cuttings,50898
ground segment,50898
penectomy,50898
rematerialization,50898
Italian ryegrass,50898
speci,50898
SGLT,50898
16s rRNA,50898
USH2A,50898
Jebel Ali,50898
Sexual assault,50898
cardiac amyloidosis,50898
Shiga-like toxin,50898
homodesmotic,50898
layered complex,50898
AUtoDock,50898
parts-per-million,50898
Supervised learning,50898
noise cancellation,50898
symmetric key,50898
Yangzi,50898
Canonical form,50898
Yang Jie,50898
SMU,50898
Queen Square,50898
multilateral treaty,50898
Multiple-choice,50898
sequence cluster,50898
Erice,50898
geometric series,50898
stress-strain analysis,50898
Linear growth,50898
NMR Spectroscopy,50898
modulation rate,50898
muscle relaxant,50898
Tissue remodeling,50898
Four phantoms,50898
social liberalism,50898
CatH,50898
familial British dementia,50898
carotid canal,50898
arrhenotoky,50898
Manihot esculenta,50898
nonAC,50898
orthogonal arrays,50898
Volcano vaporizer,50898
comparative politics,50898
rotten apples,50898
checked automatically,50898
American plaice,50898
connected set,50898
limit point,50898
aural rehabilitation,50898
blepharoconjunctivitis,50898
Message Passing Interface,50898
erythro,50898
porencephalic cyst,50898
Sexual forms,50898
chartered accountant,50898
immunoglobin,50898
phonological word,50898
FKBP,50898
tetraodon,50898
Group Health Cooperative,50898
LIDA,50898
GLARE,50898
Bullock Creek,50898
blinders,50898
hard times,50898
datalogger,50898
Ostend,50898
surgically menopausal,50898
Common hepatic duct,50898
DNA-analysis,50898
e-portfolio,50898
Nk cells,50898
botanical medicine,50898
propagation constant,50898
Redmond,50898
Fock operator,50898
Polishchuk,50898
SAFRAN,50898
trichlorofluoromethane,50898
canonical transformations,50898
Synthetic peptide,50898
solar reflectance,50898
factor T,50898
civic guards,50898
cardio-vascular disease,50898
monist,50898
ZODIAC,50898
Consumer Rights Directive,50898
Conus textile,50898
food technology,50898
Asian Tsunami,50898
electro-optics,50898
andevo,50898
Upper Rhine graben,50898
carrier recovery,50898
central unit,50898
slow slip,50898
pneuma,50898
yellowtail,50898
colpocephaly,50898
referred pain,50898
myrcene,50898
frontal system,50898
nico,50898
Montevideo units,50898
myogenic regulatory factors,50898
Myo-inositol,50898
Endomyocardial,50898
certified organic,50898
Respiratory exchange ratio,50898
intensity modulated radiation therapy,50898
Hackensack,50898
oil-immersion objective,50898
counterpoises,50898
garlic powder,50898
white piedra,50898
unbounded set,50898
Eastern Ghana,50898
Physica C,50898
Chinese room,50898
liberatio,50898
entry inhibitor,50898
firmware,50898
sinograms,50898
Oder,50898
ampakine,50898
Coulter counter,50898
Crop insurance,50898
anal plug,50898
COP20,50898
dunites,50898
paraphenylenediamine,50898
Upper Rhine,50898
Aphrodisias,50898
intracranial cavity,50898
Whisker,50898
CADP,50898
Isoflavonoid,50898
Acarinina,50898
maytansine,50898
phytotron,50898
plant growth regulators,50898
S-VHS,50898
ileocecal valve,50898
Congestion pricing,50898
Ashkenazim,50898
Siberian High,50898
Bush administration,50898
Whitehouse,50898
Waal river,50898
Emotional well-being,50898
orthovoltage,50898
violent crisis,50898
Application Programming Interface,50898
elbow-joint,50898
GJB2,50898
hemocytometer,50898
health maintenance organization (HMO),50898
0138,50898
Region 1,50898
Sagalassos,50898
N11,50898
feature recognition,50898
deep-IN,50898
immethridine,50898
Hoboken,50898
CompactFlash,50898
Zirconium,50898
4-phenylpiperidine,50898
paleoseismology,50898
protein purification,50898
Epidemiological methods,50898
Intrapleural pressure,50898
control variate,50898
Gibbs distribution,50898
planimeter,50898
bicycle theft,50898
proximal phalanx,50898
Zandvoort,50898
Melanesians,50898
dipole relaxation,50898
neuroreflexotherapy,50898
Multidimensional scaling,50898
electrochemical gradient,50898
Preisach,50898
south Atlantic Ocean,50898
Yukon,50898
Nottingham Prognostic Index,50898
Matera,50898
Albert Helman,50898
Geleen,50898
overpopulation,50898
Strahler,50898
Ifenprodil,50898
tyrosine kinase binding domain,50898
Donald Rumsfeld,50898
Fast Fourier Transform (FFT),50898
Optical pumping,50898
compassionate love,50898
lymphocryptovirus,50898
Leyton,50898
Water pollution,50898
Frameshift,50898
Hitler Youth,50898
macho,50898
Chemosynthetic,50898
schema evolution,50898
EMLA,50898
prostaglandin D2 synthase,50898
Mendelian ratio,50898
methyl fluoride,50898
coastal margins,50898
aspartyl protease,50898
cortical column,50898
disability categories,50898
External anal sphincter,50898
Yad.,50898
Lymphadenopathy,50898
Papuan language,50898
Ionization energies,50898
metrologist,50898
lordosis,50898
Porton,50898
Bulimulus,50898
Cola Debrot,50898
Red blood cell distribution width,50898
optical anisotropy,50898
mannose 6-phosphate receptor,50898
Liar Paradox,50898
Challis,50898
Kashmiri,50898
agonistic behavior,50898
defamation,50898
living single,50898
Drug abuse,50898
Prospero,50898
natural killer T cell,50898
time-correlated single photon counting,50898
CP5,50898
TRIS buffer,50898
Computer Aided Verification,50898
Ammonium bicarbonate,50898
Socinus,50898
Gusum,50898
Gernsheim,50898
musculoskeletal systems,50898
continuous integration,50898
taxan,50898
snowboarding,50898
EBSCOhost,50898
Fanconi Anemia,50898
Nrf1,50898
continuum percolation,50898
PCU,50898
Cdc25,50898
Roetgen,50898
lexicalization,50898
bacteriocins,50898
Fecal fat,50898
Region 2,50898
London Health Sciences Centre,50898
short interspersed nuclear element,50898
explicit symmetry breaking,50898
Watergraafsmeer,50898
Novosphingobium,50898
NAFO,50898
octamer transcription factor,50898
Optical vortices,50898
collegiate,50898
thermal inertia,50898
polyethersulfone,50898
Drepano,50898
The antagonists,50898
Nfkb1,50898
Walden inversion,50898
congenital cytomegalovirus infection,50898
Dunkel,50898
Trefossa,50898
Caracara plancus,50898
mechanochemistry,50898
RC5,50898
Mytilidae,50898
median filter,50898
hTR,50898
secondary compound,50898
gonadarche,50898
Bromo,50898
North Caucasian,50898
Kitwood,50898
minimal access surgery,50898
nucleus-independent chemical shift,50898
MYO15A,50898
Model behavior,50898
Greater Netherlands,50898
Skole,50898
electrostatic lens,50898
zincblende,50898
trifluoride,50898
Potchefstroom University,50898
fxg,50898
Point source,50898
liturgical calendar,50898
pair bonding,50898
Protein-protein docking,50898
additional members,50898
East African rift,50898
wave phenomena,50898
Kraut,50898
step-forward,50898
Batik,50898
Fiz,50898
cyclosporins,50898
Batavia,50898
Population dynamics,50898
ONIOM,50898
M90,50898
Agogo,50898
cyclone Klaus,50898
variable yield,50898
crisp set,50898
Acylation,50898
Gas separation,50898
EMCCD,50898
Nitrene,50898
Immortalized,50898
Seiberg-Witten invariants,50898
Focal adhesion,50898
initial-value problem,50898
Child care,50898
RET proto-oncogene,50898
Methanoculleus,50898
Control code,50898
Neo-classical,50898
Harold Lasswell,50898
SADs,50898
character induction,50898
homo sacer,50898
Haemophilia B,50898
communal defence,50898
Wolf-Hirschhorn,50898
Endemic,50898
Right-wing populist,50898
child poverty,50898
fractional factorial designs,50898
Triple-negative breast cancer,50898
positive real numbers,50898
trichothecenes,50898
Web cache,50898
offered load,50898
triple arthrodesis,50898
malicious pleasure,50898
actuarial science,50898
period-doubling bifurcation,50898
delta sleep-inducing peptide,50898
algebraic stack,50898
clipboard,50898
European Data Format,50898
Therapeutic alliance,50898
Drosophila funebris,50898
High throughput screening,50898
bromopyrroles,50898
Person-environment fit,50898
Steve Reich,50898
vestigial organ,50898
360-degree feedback,50898
Tissue factor pathway inhibitor,50898
Euphausiacea,50898
Australian Aborigines,50898
The Response,50898
Delavirdine,50898
Wind turbine,50898
animal electricity,50898
privacy law,50898
End-Stage Renal Disease,50898
Structural Health Monitoring,50898
hymn,50898
Buddhism,50898
Algol type,50898
cultural determinism,92475
Stunted growth,50898
Gersonides,50898
elective affinities,50898
Messor,50898
Germanium,50898
dialetheism,50898
adaptive resonance theory,50898
Artificial grammar learning,50898
GNB5,50898
gossip protocol,50898
Melanoma-associated leukoderma,50898
food dye,50898
Randomness,50898
Precipitation hardening,50898
Cyclin-dependent kinase 4,50898
activity-dependent plasticity,50898
Iranian nuclear programme,50898
Peroxisome proliferator-activated receptor delta,50898
ARHGEF6,50898
Job evaluation,92495
Pierre Gourou,50898
keiretsu,50898
compound Poisson distribution,50898
WBT,50898
Bovine serum albumin,50898
Twitter.com,50898
Photoelectron spectroscopy,50898
Management Science,50898
general purpose technology,50898
Copenhagen interpretation,50898
thyrotoxic periodic paralysis,50898
combinatory algebra,50898
syntagm,50898
Conformal Field Theory,50898
Prevent Strategy,50898
Galliformes,50898
CSLI,50898
marine science,50898
European storm-petrel,50898
heterogeneous system architecture,50898
Richard Feynman,50898
Mandibulofacial dysostosis,50898
Insectivora,50898
clinical biochemistry,50898
Chronic allograft nephropathy,50898
sacred grove,50898
socio-hydrology,50898
Realization,50898
Proton therapy,50898
Application Programming Interface (API),50898
GRB 070125,50898
pentecostalism,50898
structured finance,50898
ethnologist,50898
Johann Sebastian Bach,50898
Hypercalcemia,50898
basal ganglia (BG),50898
KABISA,50898
2-cocycle,50898
gesture recognition,50898
xylulose 5-phosphate,50898
waterfleas,50898
Diamond-Blackfan anemia,50898
E-3c,50898
S-NET,50898
Gastrin-releasing peptide,50898
combination tone,92542
Molybdenum cofactor deficiency,50898
Methimazole,50898
block grant,50898
biased sample,50898
Finkenberg,50898
Nio,50898
Runge-Kutta methods,50898
Sapporo,50898
Arlie Hochschild,50898
Congenital nephrotic syndrome,50898
chlorofluorocarbons,50898
Congenital contractural arachnodactyly,50898
calcium oxide,50898
Oliver & Boyd,50898
Visual arts education,50898
Ankaratra,50898
Interleukin 6,50898
Precambrian Shield,50898
biofluid,50898
active message,50898
Ferdinand,50898
bioimage,50898
Tachypnea,50898
function creep,50898
pea soup,50898
Stakeholder theory,50898
Regio,50898
central potential,50898
xanthate,50898
essential extension,50898
internal energy market,50898
High voltage,50898
Dimethyl oxalate,50898
Onychomycosis,50898
selectron,50898
Borax,50898
commodity chemicals,50898
European air transport,50898
Amartya Sen,50898
Haematopus,50898
cognitive psychophysiology,50898
auditory nerve,50898
The ideal free distribution,50898
Type I diabetes mellitus,50898
petE,50898
nonlinear optics,50898
Immink,50898
locally compact topological group,50898
3-Hydroxyacyl-CoA dehydrogenase,50898
Scientific thinking,50898
cardiac septa,50898
fibre product,50898
Vladimir Propp,50898
chaotropic agent,50898
Vetiver grass,50898
Orbitofrontal cortex,50898
Eulerian graph,50898
SerPro,50898
Cuthbert,50898
Sprengel,50898
Glycogen phosphorylase,50898
T-SPOT.TB,50898
QUAERO,50898
perioperative medicine,50898
olive fruit fly,50898
Rheumatic diseases,50898
CQG,50898
wetsuit,50898
Autism-spectrum quotient,50898
binary central stars,50898
aminoquinoline,50898
Richmond,50898
Salsalate,50898
mountaineering,50898
Helianthus,50898
volume integral,50898
FRBR,50898
2007 financial crisis,50898
Ambient light,50898
Buys Ballot,50898
cross channel,92623
Turbulence,50898
Sarbanes-Oxley,50898
Maple syrup urine disease,50898
Afrikaner nationalism,50898
Oral-Facial-Digital Syndrome,50898
lambda Scorpii,50898
Isosurface,50898
Community-Led Total Sanitation (CLTS),50898
superluminal communication,50898
positive semi-definite,50898
Circaetus gallicus,50898
neurally adjusted ventilatory assist,50898
Community Reinvestment Act (CRA),50898
Nucleus pulposus,50898
global sourcing,50898
Gond,50898
Natural language understanding,50898
publicly funded healthcare,50898
Midkine,50898
Fifth Assessment Report,50898
Iodine-123,50898
Reverse engineering,50898
Young Stellar Object,50898
Supercritical carbon dioxide,50898
DUI,50898
Ocular prosthesis,50898
political cinema,50898
Landen,50898
Focal dermal hypoplasia,50898
Aleppo pine,50898
concept class,50898
automorphic form,50898
Olfactometer,50898
Crb1,50898
Sonication,50898
Approximate entropy,50898
Hand washing,50898
Lubin,50898
sexual segregation,50898
3-phase bone scan,50898
TELOS,50898
African National Congress (ANC),50898
universal precautions,50898
middle meatus,50898
DMTR,50898
biogeographically,50898
System P,50898
Euphausia,50898
displacement field,50898
Spirochetes,50898
organoplatinum chemistry,50898
forensic physician,50898
Orap,50898
el Progreso,50898
SA-1,50898
srs,50898
isopleth,50898
palaeognath,50898
spinal root,50898
tivozanib,50898
endocytic transport,50898
The bystander,50898
IJsselmuiden,50898
Bacitracin,50898
erk,50898
Ho-1,50898
Rpl11,50898
KLK2,50898
intracranial hypertension syndrome,50898
"1,1'-Bis(diphenylphosphino)ferrocene",50898
HCFC,50898
T wave alternans,50898
purlin,50898
aXa,50898
slow water,50898
generative grammar,50898
carbon neutrality,50898
whirlpool,50898
Topological data analysis,50898
Agatha Christie,50898
alipogene tiparvovec,50898
cross-conjugation,50898
consul,50898
geriatric psychiatry,50898
interaction picture,50898
Coomassie Brilliant Blue,50898
Endicott,50898
lymphoid hyperplasia,50898
Garman,50898
Nasr Abu Zayd,50898
Afropavo,50898
pSV,50898
Storm-petrel,50898
Hydroprogne,50898
ALFA system,50898
K-15,50898
GABA-A,50898
I-V characteristic,50898
SLTS,50898
National Taiwan University Hospital,50898
amplified spontaneous emission,50898
drama therapy,50898
oversteps,50898
cofinal,50898
Wizz Air,50898
Saxon Genitive,50898
urobilinogen,50898
Struth,50898
counter-mapping,50898
galactocerebrosidase,50898
NAVA,50898
GA2,50898
windfields,50898
Topanga,50898
Magnetic Fields,50898
economic impact analysis,50898
legal transplants,50898
Sisimiut,50898
water grabbing,50898
mole-fraction,50898
faradaic efficiency,50898
morphism,50898
obstructive uropathy,50898
HDU,50898
Fast Green FCF,50898
FLOS,50898
AJR,50898
transport medium,50898
Arhgef6,50898
LB medium,50898
transcription-coupled nucleotide excision repair,50898
Metaseiulus,50898
body scent,50898
prostate cancer screening,50898
PRBS,50898
algebraic solution,50898
MODFLOW,50898
bronchomalacia,50898
lichen scrofulosorum,50898
oral cholera vaccine,50898
psychosomatic medicine,50898
cerebrospinal fluid shunts,50898
Orthopedic surgeons,50898
nucleosynthetic,50898
Intensity Measure,50898
vetiver grass,50898
Judith Stacey,50898
25 L,50898
quadratic algebra,50898
Group theory,50898
Indotestudo,50898
data-centers,50898
R-16,50898
wet oxidation,50898
Throat culture,50898
Game engine,50898
Sos1,50898
Xhosa,50898
Engerix-B,50898
Wezep,50898
Telencephalon,50898
nail bed,50898
Igfbp5,50898
FM 4,50898
chelation therapy,50898
hard ball,50898
Los Angeles County,50898
rachischisis,50898
galliform,50898
viticulture,50898
glutathione-S-Transferase,50898
Mandar,50898
plurilingualism,50898
Mayenne,50898
sympathomimetic,50898
MOA,50898
blood component,50898
12S ribosomal RNA,50898
salsalate,50898
colubroid,50898
E-ELT,50898
Megaceryle alcyon,50898
Ho-2,50898
Kangerlussuaq,50898
acromioplasty,50898
triple star system,50898
M. microti,50898
myleran,50898
hard disk,50898
chlortetracycline,50898
Historia Augusta,50898
D. labyrinthiformis,50898
nedocromil,50898
NPHS1,50898
sequential epitope,50898
hexamethyldisiloxane,50898
Microvision,50898
stepping motor,50898
refined grains,50898
convex cone,50898
continuity principle,50898
site diversity,50898
intercell,50898
globar,50898
aggressive fibromatosis,50898
Adamantane,50898
dust lane,50898
thymectomized,50898
Andringitra,50898
Indian Subcontinent,50898
Z chromosome,50898
pseudovector,50898
anseriform,50898
Gene flow,50898
Old Order Amish,50898
sympathetic ophthalmia,50898
HCFC-141b,50898
Dynein,50898
partial colectomy,50898
10 Lac,50898
Tirofiban,50898
cervical collar,50898
H26,50898
I-69,50898
sexual penetration,50898
cycloalkane,50898
single-gene disorder,50898
Millennium Goals,50898
RFL,50898
lamin B,50898
HLA-DRB4,50898
borax,50898
Vaal River,50898
phasianids,50898
The vaccines,50898
Opsonization,50898
gustation,50898
apical complex,50898
collision detection,50898
Population III stars,50898
fontanels,50898
image noise reduction,50898
Vir,50898
Rainbow trout,50898
transcranial doppler,50898
Phototherapy,50898
enterohepatic recirculation,50898
partograph,50898
nonlinear differential equation,50898
pecten,50898
oxy-combustion,50898
uORF,50898
sequence names,50898
African Penguin,50898
MoCoD,50898
L14,50898
enramycin,50898
Cecropis,50898
fibrinolysin,50898
open star cluster,50898
The valves,50898
isentropic,50898
bifonazole,50898
Germanic language,50898
paterna,50898
EFTUD2,50898
Onthophagini,50898
blastopore,50898
plague vaccine,50898
C-32,50898
Geokichla sibirica,50898
active X,50898
radiation shield,50898
NIVE,50898
GRM2,50898
M-10,50898
family circle,50898
hyphema,50898
Caulerpa,50898
Donnan equilibrium,50898
pre-service teacher education,50898
PDE4B,50898
EOs,50898
postsecularism,50898
stereochemistries,50898
peristaltic waves,50898
public nuisance,50898
NGC 3109,50898
exhibit C,50898
reggeon,50898
lookback option,50898
Siple Coast,50898
symporters,50898
sawhorse,50898
commercial solvents,50898
Scanning laser ophthalmoscopy,50898
lipocalin 2,50898
cobalt-chrome,50898
mitochondrial chromosome,50898
carcinoid tumour,50898
social incentive,50898
Pliocene climate,50898
buphthalmos,50898
DELTA-T,50898
Lungtan,50898
Oniticellini,50898
vaginal lubrication,50898
IL-20,50898
W22,50898
SA-12,50898
dermal patch,50898
esketamine,50898
Behavioral medicine,50898
Dalea,50898
Transcytosis,50898
lung neoplasms,50898
FRic,50898
far-infrared laser,50898
Colias hyale,50898
empodia,50898
radiation proctitis,50898
visual association cortex,50898
mutatis mutandis,50898
brain donor,50898
MEF2B,50898
perfect matching,50898
"PtdIns(4,5)P2",50898
nomen nudum,50898
polyribosome,50898
hypernasal speech,50898
power scaling,50898
RLL,50898
starquake,50898
single precision,50898
Ascites,50898
McMurry,50898
exhaust gas,50898
neutral buoyancy,50898
CASP7,50898
MEN2A,50898
salvo,50898
Otology,50898
Point mutation,50898
Bird Island,50898
Curie point,50898
cranioschisis,50898
sporadic group,50898
Burgers' equation,50898
usual interstitial pneumonia,50898
iron hydroxide,50898
lacrimal apparatus,50898
run-away,50898
Hydrophobic silica,50898
PDE4A,50898
alcohol withdrawal syndrome,50898
natricine,50898
Hunan,50898
ectopic ACTH syndrome,50898
NGC 55,50898
VA conduction,50898
Aboriginal,50898
PROS1,50898
social-darwinist,50898
BrYobia praetiosa,50898
Balanomorpha,50898
aardvark,50898
HD 188753,50898
Voorst,50898
sepal,50898
PWU,50898
Quantitative Structure-Activity Relationship,50898
internodes,50898
antisperm antibodies,50898
global illumination,50898
Fistulae,50898
tubercle,50898
hexactinellid,50898
LIH,50898
octreotate,50898
pharyngeal plexus,50898
anthrax vaccine,50898
PKP,50898
masking agent,50898
ontic,50898
glulam,50898
preban,50898
galliforms,50898
Brachydactyly,50898
HPG axis,50898
analytic signal,50898
del entorno,50898
Bargerveen,50898
Rhodamine 6G,50898
Moriya,50898
ENO1,50898
hypervigilant,50898
DGCR8,50898
LCN2,50898
FBN2,50898
Algoa Bay,50898
Bag1,50898
convergently,50898
echinocytes,50898
Chi-Chi earthquake,50898
SLC35C1,50898
zonula adherens,50898
silicification,50898
FUORs,50898
gnb5,50898
Lophophanes,50898
radiolarian,50898
arrestins,50898
KLF14,50898
gastrointestinal hormone,50898
auditory vesicle,50898
Wormian bones,50898
Vo2max,50898
quinagolide,50898
Vancouver General Hospital,50898
Abutilon,50898
ferroin,50898
Correia,50898
Magainin,50898
TTID,50898
decreased taste,50898
TIM-3,50898
pupil constriction,50898
florfenicol,50898
Oxus,50898
protocatechuate,50898
StB,50898
Betaglycan,50898
wood-rotting,50898
main lobe,50898
CoH,50898
IKZF4,50898
Nematobrachion,50898
CES1,50898
"Williams, D.",50898
Clcn7,50898
IAPM,50898
RNF139,50898
biological assay,50898
n-methyl-2-pyrrolidone,50898
O2O,50898
GTT,50898
Colias alfacariensis,50898
Polyacrylamide gel,50898
Cacosternum,50898
gametophytic,50898
Cheyne-Stokes respiration,50898
A29,50898
paritaprevir,50898
gentian,50898
Macrophage inflammatory protein,50898
Periparus,50898
postmaturity,50898
Tinamidae,50898
AIChE,50898
Akt2,50898
mannan-binding lectin,50898
Formoterol,50898
zygotic,50898
Droperidol,50898
ambient weather,50898
J-point,50898
subsurface ocean,50898
native chemical ligation,50898
Vietri,50898
Acute cholecystitis,50898
tetranectin,50898
Poa pratensis,50898
alpha cleavage,50898
NP-40,50898
sooty mangabeys,50898
BioEssays,50898
moloch,50898
KSR1,50898
apple domain,50898
Fujirebio,50898
SLC32A1,50898
The NOx,50898
Viral vectors,50898
Fructosamine,50898
LaN,50898
serotonin-norepinephrine reuptake inhibitors,50898
Ukerewe,50898
Natalobatrachus,50898
TOB2,50898
key management,50898
Galaxy And Mass Assembly survey,50898
Wilhelm von Humboldt,50898
Dodonaea viscosa,50898
taxonomist,50898
IFNg,50898
Zeolitic Imidazolate Frameworks,50898
slow heart rate,50898
imagoes,50898
TAB,50898
Engelhardia,50898
living fossil,50898
RhCE,50898
Cinderella,50898
Vostok,50898
skink,50898
selenite,50898
Rps19,50898
erythema induratum,50898
microcytic anemia,50898
algaenan,50898
Rotifers,50898
outcrossers,50898
AS3,50898
Newton polynomial,50898
peracarids,50898
delavirdine,50898
Dictator game,50898
intracluster gas,50898
Strongylopus,50898
Agropsar sturninus,50898
Carya,50898
Graft-versus-host disease,50898
HMG-CoA lyase deficiency,50898
Hickman catheters,50898
Thermotoga maritima,50898
XXIV,50898
Tetraonidae,50898
Starlab,50898
Blackwater fever,50898
cyanophage,50898
echinocyte,50898
Eicosanoid,50898
women deliver,50898
sialoglycoproteins,50898
vetiver,50898
processed food,50898
N207,50898
BioMarin Pharmaceutical,50898
fish head,50898
C. coli,50898
oculoplastics,50898
bradyzoite,50898
RPA2,50898
Xenodiagnosis,50898
N-acetyl-l-aspartate,50898
Silanol,50898
Glycogenolysis,50898
coronary angioplasties,50898
Rectisol,50898
Weather radar,50898
Melospiza,50898
Onthophagus,50898
Vasoconstriction,50898
STDS,50898
Tubifex tubifex,50898
rhizopods,50898
Tissue digestion,50898
adrenorphin,50898
Future 3,50898
psychophysiologist,50898
Tomopterna,50898
meso form,50898
Schedule I,50898
FLAC,50898
immunodermatology,50898
process graph,50898
Selective retention,50898
M. acuminata,50898
plesiomorphies,50898
Luo tribe,50898
aconitase,50898
CCOs,50898
Maltese cross,50898
computer image analysis,50898
Alamar,50898
Rab5b,50898
NEDDylation,50898
complementarity-determining regions,50898
petaloid,50898
HEK293 cell,50898
Active euthanasia,50898
ventricular dysrhythmia,50898
D209,50898
3B1,50898
Condalia,50898
Lillo,50898
Phasianidae,50898
Hauptman,50898
Palaeospondylus,50898
Taxonomic Impediment,50898
Inq,50898
Ontogeny,50898
multigraph,50898
living brain,50898
Topical anesthesia,50898
Canad,50898
I Am Sorry,50898
Jola,50898
human sexual behavior,50898
New Brunswick,50898
dual carriageway,50898
4ever,50898
fat redistribution,50898
safety protection,50898
system F,50898
synaptology,50898
Monoporeia affinis,50898
electric arc,50898
latent inhibition,50898
radical cyclization,50898
direct integral,50898
pure autonomic failure,50898
African nationalism,50898
pentadienyl,50898
sodium germanate,50898
Bornholm,50898
FEH,50898
Hurley,50898
data science,50898
2Cn,50898
thyroid dyshormonogenesis,50898
junctional rhythm,50898
nitroaldol,50898
Apology,50898
hip-hop,50898
current science,50898
Collinder,50898
interocular suppression,50898
Fred Lawrence Whipple,50898
MIS Quarterly,50898
Dixie cup,50898
4-octyne,50898
Cairngorms,50898
Valiant,50898
cavity optomechanics,50898
New Left,50898
body-centered cubic,50898
n-vector,50898
gerbe,50898
variational perturbation theory,50898
Enkhuizen,50898
backgammon,50898
biorthogonal system,50898
focal dermal hypoplasia,50898
linguistic semantics,50898
Crimean Astrophysical Observatory,50898
Pancratium,50898
Day care,50898
Loix,50898
self-report inventory,50898
T. marmoratus,50898
UVES spectrograph,50898
Richard Lazarus,50898
Intouchables,50898
unglaciated,50898
equational theories,50898
dark photon,50898
Bryggen,50898
free writing,50898
TNFSF14,50898
isopeptidase,50898
Sociological theory,50898
Galand,50898
intension,50898
Brian Eno,50898
sexology,50898
gonococcus,50898
Open Science Grid,50898
radio relics,50898
tris(pentafluorophenyl)borane,50898
forensic pathology,50898
knowledge modeling,50898
upper secondary education,50898
progressive inquiry,50898
ovomucoid,50898
Triturus,50898
10-K,50898
sausage roll,50898
hemiketal,50898
echinoid,50898
phylogenetic systematics,50898
Bactrocera oleae,50898
AirAsia,50898
electron withdrawing group,50898
tropical elements,50898
Tea Party,50898
Military Revolution,50898
Circo de Gredos,50898
ABCA,50898
Local independence,50898
positive airway pressure,50898
representation theoretic,50898
thermal efficiency,50898
Anseriformes,50898
quantitative genetics,50898
Amsterdam Stock Exchange,50898
mass 3,50898
Mycobacterium microti,50898
Postgate,50898
Vetiveria zizanioides,50898
social balance theory,50898
Samuel Sutton,50898
rapid antigen detection test,50898
Czechoslovakia,50898
dwarf forest,50898
sol gel,50898
Saussure,50898
central sleep apnea,50898
HN3,50898
Bijlmer,50898
UIAA,50898
Taylor Manifest Anxiety Scale,50898
associative algebra,50898
Hoy,50898
Engelmann,50898
A40,50898
experimental evolution,50898
female cats,50898
projection pursuit,50898
Tafo,50898
anatomic pathology,50898
Learmonth,50898
Chinese Communist Party,50898
Oster,50898
activation function,50898
pay grade,92495
Isla de Margarita,50898
Hydrobates,50898
chemical ecology,50898
heat-stable enterotoxin,50898
chirograph,50898
federated database,50898
Cirripedia,50898
Conceptual design,50898
IFLA,50898
Public Choice theory,50898
composite particle,50898
cognitive apprenticeship,50898
cystica profunda,50898
job analysis,50898
TCU,50898
FOLFIRINOX,50898
Solid phase extraction,50898
subprime,50898
cut-throat,50898
Sierpinski gasket,50898
ten 4,50898
Small Explorer,50898
Philippians 2,50898
intestinal perforation,50898
Natural Parks,50898
Third Cinema,50898
Northeastern United States,50898
North Queensland,50898
omnidirectional microphone,50898
Soricidae,50898
Percutaneous nephrolithotomy,50898
logically consistent,50898
revisionist,50898
Autocracy,50898
EDF,50898
mediascape,50898
Nitinol,50898
H. annuus,50898
Sub-saharan Africa,50898
Numididae,50898
Light chain,50898
quintessence,50898
Taxodiaceae,50898
WHSC1,50898
abi1,50898
Resazurin,50898
LaCl3,50898
A31,50898
Levofloxacin,50898
grazoprevir,50898
macrobenthos,50898
paenungulate,50898
phalloidin,50898
DR12,50898
Radon,50898
ionic column,50898
ovulatory phase,50898
Acute-phase protein,50898
Dijon,50898
Pyrenophora tritici-repentis,50898
M. robustus,50898
mtTFA,50898
peristaltic wave,50898
Be X-ray binaries,50898
Testudo horsfieldii,50898
Kunitz domain,50898
epicyclic,50898
female gametogenesis,50898
Ganglion cells,50898
LRRs,50898
hyperchylomicronemia,50898
consumer-resource systems,50898
Fibrinolysin,50898
Nocardia asteroides,50898
Cercopithecinae,50898
n-methyldopamine,50898
iron triad,50898
genetic redundancy,50898
proplyds,50898
c321,50898
autologous blood injection,50898
paleoceanography,50898
ER negative,50898
elbasvir,50898
thromboxane synthase inhibitors,50898
PHKB,50898
Thelypteris,50898
Pedunculata,50898
quadrupole interactions,50898
shallow focus,50898
bents,50898
Musophagidae,50898
Plummer model,50898
mdr-1,50898
Phragmites communis,50898
Lohner,50898
endoplasmic reticular,50898
Shire PLC,50898
GoRT,50898
Kell antigen,50898
propionyl-Coa,50898
brown rot fungi,50898
Lepadomorpha,50898
herpetofauna,50898
ITS-2,50898
eunomus,50898
lincomycin,50898
Dead cells,50898
Pronax,50898
Auerbach,50898
hayfever,50898
oct-4,50898
threshold host density,50898
e-ticket,50898
thromboxane receptor,50898
Glyptostrobus,50898
pygocephalomorph,50898
Kymograph,50898
High standard,50898
Soricomorpha,50898
SD 123,50898
hort,50898
Chthamaloidea,50898
Grassberger,50898
Gaasterland,50898
polysome,50898
POMT1,50898
BioConductor,50898
endothelium-derived relaxing factor,50898
bifacial,50898
intermolecular interaction,50898
Hypocapnia,50898
Slc16a2,50898
probe hybridization,50898
Metolachlor,50898
Only 38,50898
Kiribati,50898
Cabomba,50898
Wiener filter,50898
lysophosphatidylinositol,50898
aluminium fluoride,50898
Cape Floral Region,50898
fukutin,50898
haploidization,50898
W chromosome,50898
SYNPO2,50898
Adhesion-GPCR,50898
perissodactyl,50898
Triiodothyronine,50898
HD 64760,50898
sacrococcygeal,50898
Smad5,50898
Pareto-optimal,50898
Schalkwijk,50898
Vaal,50898
DYNC1H1,50898
iminophosphorane,50898
Tosyl,50898
intercostal arteries,50898
ischemic cardiomyopathies,50898
microplankton,50898
Ommen,50898
Fullerton,50898
Supersoft,50898
Wurzburg,50898
Dynamin,50898
lipophobic,50898
Scarabaeoidea,50898
Retroviridae,50898
adaptation studies,50898
thermal runaway,50898
M4R,50898
Timor Leste,50898
Tk,50898
Tnni2,50898
Saturated fat,50898
HEPACAM,50898
Ion exchange,50898
Tarsiger cyanurus,50898
ectopic pacemaker,50898
Sessilia,50898
high performance thin layer chromatography,50898
delta cells,50898
Pulmonary trunk,50898
Ava,50898
radial artery puncture,50898
dacron,50898
astma,50898
claudin-2,50898
61*,50898
self-pollinate,50898
Thermomicrobia,50898
POMT2,50898
Love clinic,50898
dermoid,50898
8 L,50898
Conraua,50898
HEAO 1,50898
A-channel,50898
desmosomal plaques,50898
Oenanthe pleschanka,50898
xanomeline,50898
dog urine,50898
Love O2O,50898
Epica,50898
mycotoxicology,50898
Petropedetes,50898
wand,50898
Euro 4000,50898
outback,50898
Northern Norway,50898
branched broomrape,50898
Methodological individualism,50898
side-to-end coloanal anastomosis,50898
Triturus vulgaris,50898
Eric Toledano,50898
Chingaza,50898
Single-photon avalanche diode,50898
The milestones,50898
A44,50898
Chinese Science Citation Database,50898
Jejunum,50898
break loose,50898
subset-sum,50898
Bernstein set,50898
Tiberius,50898
Borrelia crocidurae,50898
psychodrama,50898
minority opinion,50898
Tenrecidae,50898
Precision medicine,50898
barycenter,50898
Chrysopogon zizanioides,50898
online public access catalogue,50898
Trumbull,50898
Kirchhoff matrix,50898
Scheler,50898
protactinium,50898
Circinus,50898
female sperm storage,50898
Macua,50898
Oedipus complex,50898
uniform space,50898
Lightfoot,50898
Krasnoyarsk,50898
Czechoslovak,50898
NEDD8,50898
electric chair,50898
PTAS,50898
Labyrinth,50898
group A streptococcus,50898
Tinigua,50898
single-index model,50898
SILC,50898
monogram,50898
IIL,50898
David Greig,50898
nonconformism,50898
Fireworks,50898
FLE3,50898
axiomatic system,50898
thermodynamic laws,50898
anomalous magnetic dipole moment,50898
Emim,50898
Fauna Europaea,50898
entity-relationship model,50898
TIG,50898
refractometry,50898
Aspergillus flavus,50898
linklessly embeddable graphs,50898
botany,50898
Lorentz-Lorenz,50898
verificationist,50898
clear cell adenocarcinoma,50898
NP hard,50898
Picasso,50898
Discourse Representation Theory,50898
desoxyribonuclease,50898
Peter Mair,50898
Load-balancing,50898
safflower,50898
Augustus De Morgan,50898
Acrothoracica,50898
International Standards Organization,50898
substitutable goods,50898
Hartebeesthoek,50898
Kazakh,50898
Microsoft Windows,50898
counterculture,50898
chlordimeform,50898
neognath,50898
laicism,50898
colorblind,50898
swimbladder,50898
Reed-Muller codes,50898
adoption studies,50898
rectangular band,50898
Cluster sampling,50898
atmospheric science,50898
Gochnatia polymorpha,50898
Windermere,50898
FLWO,50898
Signal analysis,50898
Sustainable Urban Drainage Systems,50898
open defecation,50898
Peter-Weyl theorem,50898
Butajira,50898
Salvia pratensis,50898
Herder,50898
Nisin,50898
Meteorologica,50898
sexual pain disorder,50898
tree hollow,50898
inclusion conjunctivitis,50898
crucifixion,50898
Bok globules,50898
power outage,50898
feeling rules,50898
Ukerewe Island,50898
conference report,50898
Sigma-model,50898
Concurrent Collections,50898
Azoospermia factor,50898
stag hunt,50898
Poynting vector,50898
Qaumi,50898
MYCIN,50898
South African Development Community,50898
separable algebra,50898
effective demand,50898
Utopia,50898
dihydropyran,50898
stoneflies,50898
faucet,50898
surface conductivity,50898
Christophorus Buys Ballot,50898
stock-flow,50898
Hahn polynomial,50898
David Byrne,50898
English conditional sentences,50898
spin operator,50898
Thucydides,50898
Iona,50898
convective storms,50898
hypervelocity star,50898
CUL1,50898
Sphaerobacter,50898
limb-body wall complex,50898
MASP,50898
AGAMOUS,50898
Thon,50898
IPEX,50898
Phenoxybenzamine,50898
"Chapman, F.",50898
ChREBP,50898
Volvox carteri,50898
exogenous factor,50898
PDGFRa,50898
Schild regression,50898
macrophage inflammatory proteins,50898
prostaglandin D synthase,50898
surface temperature record,50898
cirripede,50898
epifamily,50898
Hondsrug,50898
cortical spreading depression,50898
Exon shuffling,50898
droperidol,50898
DHHS,50898
monoacylglycerol,50898
S+A,50898
D-xylose isomerase,50898
biocontainment,50898
ICBM,50898
character set,50898
KCNS1,50898
chemoselectively,50898
Ataxia-telangiectasia,50898
Tropical rain forest,50898
NIP7,50898
N-acetylglucosaminidase,50898
orexin-A,50898
chemical trap,50898
Byttneria,50898
copurification,50898
phagocytize,50898
Salpingectomy,50898
Esketamine,50898
NUP155,50898
Beta amyloid,50898
protein allergy,50898
Sapindaceae,50898
STEAP3,50898
BPL,50898
sulfite reductase,50898
TFEB,50898
MRPL1,50898
biguanides,50898
pul,50898
sulfite dehydrogenase,50898
hypothalamic hamartoma,50898
cis-acting element,50898
Taschner,50898
Schubert,50898
United States Geological Survey,50898
glass blowing,50898
Palgrave Macmillan,50898
Muttahida Qaumi Movement,50898
UNISDR,50898
Gene-,50898
glycine decarboxylase,50898
bigram,50898
National Solar Observatory,50898
M82 X-2,50898
generalized flag manifold,50898
"1,2-diaminobenzene",50898
snowdrift,50898
Type II supernovae,50898
comoros,50898
safe house,50898
leg length discrepancy,50898
Luminescence dating,50898
surface mail,50898
Tivozanib,50898
Laguerre,50898
Dysidea arenaria,50898
aph,50898
Ayvalik,50898
medium access control,50898
metamagnetism,50898
Schottky barrier,50898
concentric contraction,50898
primary key,50898
U-A,50898
marketing authorization application,50898
Vinculin,50898
Four hearts,50898
Urban regeneration,50898
Interleukin 13,50898
natural parameters,50898
anisotropic displacement parameters,50898
haemanthamine,50898
1Y,50898
Jaru,50898
critical cartography,50898
AGT correspondence,50898
Fermi temperature,50898
marching cubes,50898
interdependent networks,50898
Heartbeat,50898
double-barrelled,50898
forbidden minor,50898
ozone depletion potential,50898
eccentric exercises,50898
blood substitutes,50898
HmG-CoA-reductase,50898
derivability,50898
nab-paclitaxel,50898
debasement,50898
electrical admittance,50898
hepatic artery embolization,50898
Wii Balance board,50898
CD52,50898
Duchenne de Boulogne,50898
Meander,50898
ultrasonication,50898
Leuven University,50898
Hochschild,50898
Resonance Enhanced MultiPhoton Ionization,50898
Ascothoracida,50898
Plutarch,50898
Columbella,50898
EHEC,50898
high-speed photography,50898
terphenyl,50898
nail matrix,50898
Plackett-Burman,50898
amyloglucosidase,50898
tail-coverts,50898
pure air,50898
Hamburger moment problem,50898
gigapascal,50898
nucleotide analogs,50898
Uzbek,50898
catatonia,50898
neo-Marxist,50898
word frequencies,50898
paecilomyces,50898
family time,50898
Myxilla,50898
Solenodontidae,50898
ideal chain,50898
mandibulofacial dysostosis,50898
service level agreement,50898
housing association,50898
[111] direction,50898
Kernberg,50898
hendiadys,50898
Granat,50898
FPTAS,50898
factorial moment,50898
horseshoe map,50898
German romanticism,50898
Philippe de Chauveron,50898
hegemon,50898
graminaceous,50898
equal exchange,50898
mid-wales,50898
Mycopathologia,50898
ad hoc hypotheses,50898
VHS,50898
bioproduct,50898
Sebo,50898
Martti Koskenniemi,50898
Eastern chimpanzee,50898
generalized eigenvalue problem,50898
Blakeslee,50898
Entomophthorales,50898
shorebird,50898
MBA,50898
real price,50898
voc,50898
4-methoxyphenylpiperazine,50898
Pneumomediastinum,50898
Present State Examination,50898
polyethyleneimine,50898
commutation relation,50898
financial mathematics,50898
charge conservation,50898
Monarch Butterfly Biosphere Reserve,50898
intraspecific hybrid,50898
Bombacoideae,50898
hallux varus,50898
Lingulodinium machaerophorum,50898
Interferon gamma,50898
industrial waste,50898
gonadal mosaicism,50898
standard candle,50898
speakers bureau,50898
freezing-thawing,50898
Orinoco Basin,50898
Crucell,50898
photorealistic,50898
Orange Revolution,50898
commodity chemical,50898
future movement,50898
Themistocles Gluck,50898
ethyl radical,50898
standard input,50898
ALH84001,50898
Walp.,50898
anatomically modern human,50898
Sondre Stromfjord,50898
Zoological Record,50898
TosMIC,50898
Valenciennes,50898
Glybera,50898
Kayin,50898
knowledge network,50898
Lookback option,50898
F-layer,50898
Kolmogorov-Arnold-Moser theorem,50898
Nobeyama,50898
aneroid,50898
Skin cancer,50898
Numerical continuation,50898
coarticulation,50898
transferable skill,50898
Leptonema,50898
poker face,50898
Craniotomy,50898
Bienvenue chez les Ch'tis,50898
expert elicitation,50898
mianserin,50898
creolisation,50898
gut flora,50898
terrestrial locomotion,50898
Differential pulse voltammetry,50898
pentecostalist,50898
modern slavery,50898
star class,50898
Latin language,50898
Ilisu Dam,50898
superheated,50898
Iriartea deltoidea,50898
etale cohomology,50898
polygamy,50898
lactococci,50898
housing type,50898
corpus size,50898
Ivan Zajc,50898
A Thousand Plateaus,50898
Common Market,50898
Antigonish,50898
supermodel,50898
barrier option,50898
thermodynamic potential,50898
superparamagnetism,50898
migration period,50898
relaxation oscillator,50898
Interchange instability,50898
Athenaeum Illustre,50898
Nizip,50898
Auger emission,50898
Sexual abstinence,50898
solid nitrogen,50898
Y series,50898
Chlamydiaceae,50898
Karl Polanyi,50898
Hymeniacidon,50898
liquid bridge,50898
Vanillylmandelic acid,50898
reductionistic,50898
IANA,50898
differential inclusion,50898
real-time (RT),50898
cost-shifting,50898
optical tweezer,50898
WWF,50898
Contraposition,50898
quinuclidone,50898
advertising network,50898
QT/QTc,50898
Navier Stokes equations,50898
Meixner polynomial,50898
square window,50898
RPS19,50898
steam generator,50898
rug,50898
AlPO,50898
rolling paper,50898
George Boole,50898
centre point,50898
Poisson algebra,50898
Dark skin,50898
Talpidae,50898
Online-to-Offline,50898
Yinchuan,50898
English district,50898
mucocele,50898
color temperature,50898
serglycin,50898
elapids,50898
Thyas,50898
Interrupted time series,50898
bit depth,50898
musical composition,50898
disjoining pressure,50898
Taylor expansion,50898
convective temperature,50898
Very Long Baseline Array (VLBA),50898
adiabatic heating,50898
equivalence class,50898
R136a2,50898
Chinese pharmaceutical industry,50898
crista ampullaris,50898
Formazan,50898
chaotropic salts,50898
The Jackson Laboratory,50898
SnCl2,50898
Desor,50898
homophone,50898
ComPair,50898
Kom,50898
stable equilibrium points,50898
Charmed,50898
Hearing Impairment,50898
first-order arithmetic,50898
Stelarc,50898
Empirical modelling,50898
policy-based management,50898
N-120,50898
symbol level,50898
Kasai procedure,50898
family-wise error rate,50898
consumption distribution,50898
tabu search,50898
I band,50898
ultraspherical polynomials,50898
electron impact ionization,50898
binary mass function,50898
production rules,50898
geriatric psychiatrist,50898
arteriovenous shunt,50898
distance modulus,50898
Sion,50898
erogenous,50898
hepatoportoenterostomy,50898
Edward Fredkin,50898
laryngeal mask airway,50898
Castanea sativa,50898
rare bird,50898
private copying,50898
R136a3,50898
Robert Fitzroy,50898
Telcom,50898
Anchinoe,50898
Bar Harbor,50898
human lungs,50898
Negation Introduction,50898
Bessel processes,50898
OPAC,50898
cell wall skeleton,50898
fisheries discards,50898
4d6,50898
mercury telluride,50898
web operations,50898
PlanetLab,50898
fungal ecology,50898
Zalcitabine,50898
Erinaceidae,50898
triangular matrix,50898
sortes,50898
helicase-dependent amplification,50898
Gemlik,50898
Petronius,50898
Einstein ring,50898
conditional Value-at-Risk,50898
Forst,50898
Seroma,50898
UBR1,50898
Dany Boon,50898
KIBRA,50898
Cd45,50898
Dermatophagoides,50898
Delta kappa gamma,50898
Time Warp,50898
Linear polarization,50898
Chroicocephalus,50898
psychrotrophic,50898
smoking gun,50898
Wavefunction,50898
Airway resistance,50898
tonic clonic,50898
critical data studies,50898
electrostrictive,50898
INEPT,50898
haemophiliac,50898
RPL11,50898
Sierra Chichinautzin,50898
electrooculogram,50898
antineoplastic drug,50898
5-bromouracil,50898
work programme,50898
RhCG,50898
John Taylor,50898
Hibbert,50898
Tricladida,50898
hardcore punk,50898
Barium chloride,50898
duty-cycle,50898
Venice Commission,50898
DnaJ,50898
coal gasification,50898
Montferland,50898
Ketan Mulmuley,50898
grooved brain coral,50898
E22,50898
Benidorm,50898
episteme,50898
babesiosis,50898
Boundedness,50898
Data Warehousing,50898
permanent death,50898
negative allosteric modulator,50898
thromboelastography,50898
macroarrays,50898
Penn,50898
John Akomfrah,50898
Squilla,50898
NGC 5128,50898
HCFC-22,50898
bridging language,50898
hidden-variable theory,50898
wafer stepper,50898
sooty mangabey,50898
chain-growth polymerization,50898
adultery,50898
distal phalanges,50898
procognitive,50898
Default risk,50898
Mindanao,50898
Forbes,50898
XK protein,50898
Menarini,50898
Bulk density,50898
exon trapping,50898
systematic symptoms,50898
ants' nests,50898
deinstitutionalisation,50898
aldohexose,50898
pentecostalists,50898
Cercocebus,50898
ecological applications,50898
three-step test,50898
pimozide,50898
Object Pascal,50898
philadelphia,50898
ZAA,50898
administrative region,50898
varix,50898
biodiversity informatics,50898
Tarifa,50898
British Meteorological Office,50898
PRAM,50898
tripartite system,50898
heliotherapy,50898
peso,50898
Ehrlich ascites,50898
L11,50898
Kirundi,50898
Hetao,50898
monokines,50898
Dimensional analysis,50898
Autoregulation,50898
cartographies,50898
logarithmic distribution,50898
bacteroides,50898
Nauplii,50898
shear band,50898
Grashof number,50898
vacuum drying,50898
direct DNA damage,50898
Alcoy,50898
implicit solvent,50898
R2k,50898
persistent organic pollutant,50898
Pulay,50898
Wyke,50898
radiation transport,50898
"phosphatidylinositol 4,5-bisphosphate (PIP2)",50898
gentiobiose,50898
intermontane basin,50898
invasin,50898
privatised system,50898
entrainable,50898
anthroponotic,50898
representative democracies,50898
Zrinski,50898
Chrysochloridae,50898
Invariant theory,50898
Spheniscus demersus,50898
Cirolana,50898
free variation,50898
agricultural district,50898
Arenzano,50898
lifelike,50898
sub-zero,50898
1Hz,50898
ultraviolet reflectance,50898
Nedocromil,50898
set domain,50898
wide channel,50898
The mistake,50898
la herencia,50898
D-module,50898
flux quanta,50898
Talal Asad,50898
Vlaardingen,50898
microcoil,50898
dinitrogen complex,50898
Tsushima,50898
anthroposophy,50898
gradient well-formedness,50898
superconducting coherence length,50898
TNF-inhibiting,50898
Pruning,50898
winter days,50898
PRKCG,50898
Lymphotoxin,50898
Russian legislation,50898
ThromboSpondin repeats,50898
nuclear halo,50898
Plucker,50898
total film,50898
Cantopop,50898
trimethylsilylchloride,50898
Helicoverpa armigera,50898
photon bubble,50898
light-near dissociation,50898
Scaphiophryne madagascariensis,50898
styrene-butadiene,50898
Gauteng,50898
Bas-Uele,50898
Levenberg-Marquardt algorithm,50898
partition sum,50898
Friedrich Schlegel,50898
Monrovia,50898
early Christianity,50898
phototrophy,50898
atys,50898
coupled mode theory,50898
Nd6,50898
surface map,50898
Weiwerd,50898
"Durham, North Carolina",50898
bouncing ball,50898
GABA-A receptor,50898
Pinterest,50898
tight fit,50898
Hydrocoloeus,50898
blurry vision,50898
squaramide,50898
system P,50898
Helsinki University Central Hospital,50898
IGF2BP1,50898
homonymy,50898
prosector,50898
framing youth,50898
severe diarrhoea,50898
Squillidae,50898
Diuretic,50898
net generation,50898
Slavoj Zizek,50898
parametric amplifier,50898
orthogonal group,50898
leukocyte alkaline phosphatase,50898
Germ cells,50898
UNC13A,50898
Trichothecene,50898
mereology,50898
nomen novum,50898
Tulsa,50898
micro-enterprise,50898
cotton swab,50898
DNA taxonomy,50898
NS5-brane,50898
software component,50898
Volusianus,50898
hybrid reactor,50898
empirical probability,50898
q-Hahn polynomials,50898
gramme,50898
G82,50898
Ellewoutsdijk,50898
The guts,50898
Discrete Event Simulation,50898
tide pools,50898
Onychoprion anaethetus,50898
lithoautotrophy,50898
hyperkyphosis,50898
minor spliceosome,50898
Salvia,50898
Atlantis,50898
throat culture,50898
practice statement,50898
relativistic aberration,50898
enolate anion,50898
zBAR,50898
Wieringermeer,50898
Formal learning,50898
Van der Waals interaction,50898
area 19,50898
lattice Boltzmann Method,50898
Neurocritical Care,50898
hubris,50898
Helicoverpa assulta,50898
gap gene,50898
coadjoint orbit,50898
Official Development Assistance,50898
transsphenoidal,50898
churn rate,50898
retroverted uterus,50898
la Mission,50898
Vocal cord dysfunction,50898
dorsomedial nucleus,50898
PLA2G6,50898
brane theory,50898
Ilokano,50898
sweeper,50898
Genome assembly,50898
Solarium,50898
Anaplasia,50898
Dura mater,50898
praetorian prefect,50898
13 lakes,50898
abstract syntactic,50898
Twentythree,50898
dermal papillae,50898
P. echinata,50898
shift operator,50898
GEANT,50898
Snapchat,50898
recontextualisation,50898
Skagen,50898
elosulfase alfa,50898
aromatized,50898
positive operator,50898
genebank,50898
HFC-134a,50898
position-independent,50898
uncompetitive inhibitor,50898
virtual colonoscopy,50898
apomorphy,50898
Growing Up,50898
Po River,50898
loracarbef,50898
contiguous United States,50898
angiocardiography,50898
Optical absorption,50898
EasyJet,50898
Globus Toolkit,50898
Observatoire de Haute-Provence,50898
Leiderdorp,50898
basiliximab,50898
generative semantics,50898
DI2,50898
Keratin 17,50898
Couinaud,50898
idiosyncratic drug reaction,50898
paradoxical sleep,50898
tachykinin receptor,50898
Adhesion-GPCRs,50898
GPU cluster,50898
Intervalence charge transfer,50898
nickel boride,50898
chemosynthesis,50898
Myoviridae,50898
Epileptic seizure,50898
Lancefield,50898
Sternula albifrons,50898
proctosigmoidoscopy,50898
boules,50898
tidally influenced,50898
consumer science,50898
freshwater ecosystem,50898
RNase A,50898
obstructive arterial disease,50898
Network records,50898
InfoSoc Directive,50898
ST-segment Elevation Myocardial Infarction,50898
constraint satisfaction,50898
carnage,50898
haldol,50898
TYCHO,50898
Denisov,50898
spliceosomal,50898
HWP1,50898
positive force,50898
42d,50898
Leidse Rijn,50898
Typha,50898
glycine max,50898
family life education,50898
Macronutrient,50898
polyacetal,50898
fluorenylmethyloxycarbonyl chloride,50898
PdL1,50898
Information dimension,50898
Physica,50898
The shower,50898
test theory,50898
lordosis behavior,50898
band theory,50898
alpha-mannosidosis,50898
Hausa,50898
Superficial vein thrombosis,50898
Pimozide,50898
Sampling bias,50898
heterochronic,50898
abscissa,50898
non-singular matrix,50898
Case-control studies,50898
totally drug-resistant tuberculosis,50898
pearling,50898
Gredos,50898
Gallienus,50898
function problem,50898
Einstein-Podolsky-Rosen,50898
pwn,50898
CIOMS,50898
non-decreasing function,50898
dimethyl disulphide,50898
Denver developmental screening test,50898
Solid-phase microextraction,50898
Al-Salam,50898
Pearson Correlation,50898
reversible dynamics,50898
young river,50898
Pancreaticoduodenectomy,50898
sorptivity,50898
lagg,50898
The passengers,50898
Eukaryotic transcription,50898
Kaman,50898
Frostbite,50898
methyl mercury,50898
Internet backbone,50898
Non-Hodgkin lymphoma,50898
DOORN,50898
Tangney,50898
synthetic jet,50898
chlorinated organic compounds,50898
The free radical,50898
Asymmetrically,50898
Nasal administration,50898
Cell-free fetal DNA,50898
Shair,50898
quasi-projective variety,50898
Monterrey,50898
sports experts,50898
Corpora amylacea,50898
Saw,50898
complex sphere,50898
Quorum sensing,50898
Laurel,50898
Acrylamide,50898
personality style,50898
Quantile,50898
board game,50898
Capsid,50898
Tiagabine,50898
moral foundations theory,50898
Scheldt River,50898
Trilateral retinoblastoma,50898
space age,50898
SRX,50898
sport scientific,50898
Okun,50898
Asch,50898
POOT,50898
David Silver,50898
Alcohol intoxication,50898
Dynamic model,50898
small area estimation,50898
ontology matching,50898
"Gaithersburg, Maryland",50898
Galantamine,50898
omental bursa,50898
Primary hyperparathyroidism,50898
Marcella,50898
Gregory Bateson,50898
situationism,50898
fuzzy game,50898
Slavery,50898
frictionless market,94485
Estrogen receptor alpha,50898
Megalencephaly,50898
D-2-Hydroxyglutarate dehydrogenase,50898
offender profiling,50898
Wet Bulb Globe Temperature,50898
Riboflavin,50898
finger counting,50898
Narain,50898
Propylene glycol,50898
Oreopithecus bambolii,50898
Hypertensive crises,50898
Metagenomics,50898
Hebe,50898
ice rafted,50898
Knot tying,50898
Gantenerumab,50898
Allergic inflammation,50898
ribbon development,50898
proverb,50898
Norwalk,50898
product sample,50898
Kesteren,50898
Tajik,50898
Coloureds,50898
uterine inversion,50898
specialist registrar,50898
Rayong,50898
Astaxanthin,50898
ecospace,50898
Chavan,50898
wave drag,50898
Hurewicz,50898
Shoulder problems,50898
rainwater harvesting,50898
Urban open space,50898
utility computing,50898
middle-distance,50898
rewrite system,50898
corticorelin,50898
action-specific perception,50898
twelve articles,94526
Hydroxylation,50898
Paul Cobben,50898
Sea level rise,50898
synaptic interactions,50898
Seasonal affective disorder,50898
cultural geographies,50898
asymmetric crying facies,50898
Neofelis nebulosa,50898
naturalistic decision-making,50898
Eddy current,50898
Brachyspira,50898
Business Process Management,50898
Inelastic scattering,50898
bluefin tuna,50898
sea surface temperatures (SSTs),50898
interpersonal support,50898
Digital Single Market,50898
NoSQL,50898
sheltered workshop,94545
Internet Service Provider,50898
Staal,50898
gubernaculum testis,50898
electric power,50898
Campbell Collaboration,50898
Pachydermoperiostosis,50898
lipschitz function,50898
Allosteric regulation,50898
tropical storm,50898
Behavioral addictions,50898
Gelpi,50898
Qinling Mountains,50898
superior canal dehiscence syndrome,50898
Arteriosclerosis,50898
bankruptcy problem,50898
joint distribution function,50898
John Cobb,50898
Enterocyte,50898
hemogram,50898
composite type,50898
Natural attenuation,50898
Neurokinin 1,50898
Nuevo Leon,50898
Congolese,50898
Threonine,50898
Big Five personality model,50898
Semantic network,50898
The fall risk,50898
The firefly,50898
Andreas Vesalius,50898
Mantra,50898
Hydroxyethyl starch,50898
Mid-upper arm circumference,50898
testicular microlithiasis,50898
Russian President,50898
nucleoporin,50898
Charge carrier,50898
Educational Sciences,50898
Latent Semantic Indexing,50898
Motor coordination,50898
Sewage sludge,50898
synaesthesia,50898
4-Hydroxyphenylpyruvate dioxygenase,50898
alanine transferase,50898
IDIR,50898
Active immunotherapy,50898
Data fusion,50898
Vitamin G,94593
Geminal,50898
sensory system,50898
Reaming,50898
Optical recording,50898
staple food,50898
SPIJKER,50898
Phosphatidylserine,50898
English law,50898
family preservation,50898
Benjamin Libet,50898
Wireless sensor networks,94604
Back-arc basin,50898
3x3,50898
swallowtail,50898
Negative campaigning,50898
abortion debate,50898
ileal conduit,50898
"CAMERON, A.",50898
marginalism,50898
compatibility layer,50898
Keenjhar Lake,50898
Digital history,50898
digital economy,50898
government-to-business,50898
national health service,50898
insider trading,50898
geologic timescale,50898
Fenestration,50898
Soma,50898
exotic plant species,50898
visual rhetoric,50898
Energy security,50898
pecking order theory,50898
maxillomandibular advancement,50898
IVAR,50898
Tuz,50898
assigned sex,50898
nestbox,50898
Amongst women,50898
Petunia axillaris,50898
Unix pipelines,50898
bono,50898
Actn4,50898
food labelling,50898
fish cages,50898
Walthard,50898
NDR,50898
Choker,50898
cold shock response,50898
passive leg raising,50898
netball,50898
cytisine,50898
CD88,50898
spirituals,50898
Pythagorean theorem,50898
Lhcb,50898
buddy system,50898
Tind,50898
chi square test,50898
pseudoscience,50898
DAH,50898
Testicular microlithiasis,50898
Bigtable,50898
VigantOL,50898
Anx,50898
FGF3,50898
coastal flood,50898
MHC restriction,50898
18O,50898
MDR-1,50898
Hsp33,50898
RNF8,50898
downside beta,50898
ethionine,50898
male pregnancy,50898
whiffle ball,50898
Polysomnographic,50898
brivaracetam,50898
LUdwigshafen,50898
adsorptive capacity,50898
WWI,50898
Inflorescence,50898
Alpe d'Huez,50898
Participatory ergonomics,50898
food composition data,50898
histogram equalization,50898
steelmaking,50898
Doha Development Round,50898
unthinned,50898
Oostrum,50898
palaeological,50898
Pulp,50898
Situationism,50898
routing protocol,50898
automated decision support,50898
PFIQ,50898
Southwest Oncology Group,50898
ephrin-B1,50898
Bloch-Kato conjecture,50898
STX1B,50898
Oreopithecus,50898
ARPC1A,50898
WGET,50898
therapeutic misconception,50898
World Gastroenterology Organisation,50898
AftE,50898
endopeptidases,50898
RPL5,50898
Geraki,50898
aviaries,50898
hot flashes,50898
analog mission,50898
Clinical Laboratory Improvement Amendments,50898
image denoising,50898
Gross domestic product,50898
Crisis communication,50898
high CoM,50898
gantenerumab,50898
Sobol,50898
DAIC,50898
Kampot,50898
Tysabri,50898
Viannos,50898
Diasorin,50898
EUC,50898
frozen dessert,50898
A1CF,50898
NMDAR antagonist,50898
ADK,50898
foramanifera,50898
uterine horns,50898
Gas chromatography-mass spectrometry,50898
E. arborea,50898
JILA,50898
food policy,50898
axial tilt,50898
LRCP,50898
MAP4,50898
SFRS7,50898
Monts de Vaucluse,50898
measure 25,50898
self-medicated,50898
T86,50898
3 generations,50898
high-content screening,50898
Climate model,50898
homeoviscous adaptation,50898
Chinese art,50898
metoidioplasty,50898
Almelo,50898
reassortants,50898
TLK1,50898
opinion leader,50898
polar amplification,50898
kerf,50898
sophiology,50898
protein superfamily,50898
bone bank,50898
retene,50898
spatial database,50898
occipital pole,50898
neonatal asphyxia,50898
Epistemology,50898
ACAs,50898
FGF8,50898
Ablation zone,50898
Mosaic Law,50898
classical association,50898
alternative 3,50898
Calmness,50898
PRIMOS,50898
bioethanol,50898
heart rate sensor,50898
hummocky cross-stratification,50898
ML-1,50898
Quantum mechanics,50898
XGMML,50898
quaternium-15,50898
FGF20,50898
Golu,50898
population parameter,50898
alcohol level,50898
exponential random graph models,50898
westernization,50898
market basket,50898
HSAB concept,50898
ROCS,50898
RPL10,50898
hole puncher,50898
heart scan,50898
group conflict,50898
IL12RB2,50898
Adenophorea,50898
Vision loss,50898
Barros,50898
tree automata,50898
aphakic,50898
inherent bias,50898
dual process theory,50898
synaptojanin,50898
energy target,50898
craniometric,50898
Vahdat,50898
ApoA2,50898
sipuleucel-T,50898
superior petrosal sinus,50898
pericardial fluid,50898
primase,50898
pH7,50898
EMBO Journal,50898
ASA III,50898
JIP1,50898
posterior capsular opacification,50898
Neonatal sepsis,50898
Tracheal intubation,50898
ADAM12,50898
standardized variable,50898
anthracenedione,50898
att,50898
basanite,50898
Hemmoor,50898
phenomics,50898
aquatic bird,50898
SRGAP2,50898
Soke,50898
KIEs,50898
PROKR2,50898
Density dependence,50898
Maxillary sinus,50898
Pharmacogenomic,50898
Sciodrepoides,50898
Protestant work ethic,50898
water chillers,50898
Nandi district,50898
Tilapia rendalli,50898
transcript isoforms,50898
exogenic,50898
SLCO2A1,50898
oxygen-18,50898
Change 2011,50898
bloodloss,50898
FAT,50898
MAP3K4,50898
trichodiscoma,50898
exclusivism,50898
COL27A1,50898
elisa,50898
PRIM1,50898
BaBar,50898
SYNJ2,50898
AEO,50898
specc1,50898
distal promoter,50898
attenuation bias,50898
fluid simulation,50898
fracture propagation,50898
centralite,50898
APTES,50898
Livno,50898
Densu,50898
Lance Armstrong,50898
nursery days,50898
8N,50898
Georges Florovsky,50898
Lerna,50898
tree nuts,50898
Risk communication,50898
Xar Moron,50898
ocean heat content,50898
cokernel,50898
Colorimeter,50898
Rhabditidae,50898
Ostry,50898
Amazon SimpleDB,50898
Col4A1,50898
slew rate,50898
circular buffer,50898
NLRP11,50898
sero-conversion,50898
No brain,50898
vesicovaginal fistula,50898
SV40 large T-antigen,50898
Codon,50898
protospacer-adjacent motif,50898
histamine antagonist,50898
HPGD,50898
TFAP2C,50898
CHRNA7,50898
"hospitals, teaching",50898
mitogen-activated protein kinase 8,50898
superior semicircular canal,50898
"London, Ontario",50898
Amazon cloud,50898
Sigmoidoscopy,50898
Limon,50898
Vesalius,50898
Some records,50898
hot rod,50898
Trisomy 8,50898
Itga7,50898
gait apraxia,50898
Peregrine falcon,50898
Slc27a5,50898
Hierarchical linear modeling,50898
Hyblean,50898
frustrated Lewis pair,50898
PATZ1,50898
morphant,50898
synthetic fuel,50898
NATURA 2000,50898
M9,50898
CD11B,50898
Mugil,50898
TMPRSS3,50898
Ectopia lentis,50898
Pulse oximetry,50898
Universitas Indonesia,50898
cyp1a,50898
BARD1,50898
Antarctic continental shelf,50898
Blue Tit,50898
donor dependent,50898
Vardar,50898
transport sediment,50898
OBOE,50898
hemi-parasitic,50898
Cichla ocellaris,50898
molecular cross-linking,50898
pramipexole,50898
Osmolality,50898
jaw clenching,50898
Rhazes,50898
murid,50898
arenarius,50898
somatic sensations,50898
cbs,50898
Decaffeinated,50898
BAT2,50898
whi,50898
Meuse-Argonne offensive,50898
hypocone,50898
rotational constant,50898
achilles tendon,50898
pulmonary pathology,50898
General Circulation Model,50898
Atherosclerosis Risk In Communities (ARIC),50898
SFRP5,50898
Sutent,50898
indazole,50898
STX6,50898
siglec-7,50898
Covidien,50898
BMPR1B,50898
caesarian,50898
Green Fluorescent Protein,50898
rs25531,50898
ghost circles,50898
CDKN2BAS,50898
TNIP1,50898
methylated DNA immunoprecipitation,50898
mugearite,50898
X-ray machine,50898
San Bartolo,50898
decolonized,50898
IDN,50898
Tomislavgrad,50898
Elemental analysis,50898
Vaccine efficacy,50898
Orangist,50898
atrasentan,50898
Kolyma,50898
alcohol withdrawal seizures,50898
Catalpol,50898
design matrices,50898
ruxolitinib,50898
Great Tit,50898
Mosasaurus,50898
blended families,50898
Contin,50898
Pulsatile tinnitus,50898
current dipoles,50898
PHO,50898
Middle Africa,50898
bursectomy,50898
premorbid IQ,50898
AdOx,50898
Cx26,50898
Meridional Overturning Circulation,50898
fuel exhaustion,50898
Anglophile,50898
Angiodysplasia,50898
Hoplias malabaricus,50898
agricultural supply,50898
path curvature,50898
ICY,50898
lactate threshold,50898
HLA-DRB5,50898
e533,50898
uPARAP,50898
hemin,50898
OSMR,50898
Muscimol,50898
Zebra Finch,50898
Dutch Indies,50898
paraphasia,50898
LPAR1,50898
Chinese culture,50898
sodium monofluorophosphate,50898
PHEX,50898
VEN,50898
XTerra,50898
Eurydice pulchra,50898
digastrics,50898
Asenapine,50898
ASBO,50898
YG,50898
Natural killer cells,50898
preprotein,50898
sanctification,50898
esmolol,50898
ANK3,50898
EphB2,50898
isostatic rebound,50898
tiling array,50898
human-powered,50898
EIF2AK3,50898
Klip River,50898
Atrial flutter,50898
compactness theorem,50898
B. parapertussis,50898
Venice lagoon,50898
B. breve,50898
Holiness Code,50898
Sediment gravity flows,50898
keratin 16,50898
iPASS,50898
Nod-like receptors (NLRs),50898
antipsychiatry,50898
PRRX1,50898
RHOB,50898
pseudo-3D,50898
TiA,50898
armalcolite,50898
hypertensive emergencies,50898
Gauze,50898
familiar pain,50898
ISBD,50898
Compressibility,50898
hLM,50898
Total body water,50898
5Ma,50898
Pelvic pain,50898
Frontal lobe,50898
steric factor,50898
Vandetanib,50898
Esterase,50898
immediate-early proteins,50898
HEPG2,50898
E-numbers,50898
ZBP1,50898
ITIH3,50898
Windhoek,50898
LSR group,50898
model S,50898
servomechanism,50898
LAVI,50898
vinflunine,50898
EphB4,50898
superior pharyngeal constrictor muscle,50898
Daqing oil field,50898
Inn River,50898
nanodisc,50898
Chytridiomycota,50898
polyoxymethylene,50898
FLV,50898
hypsodonty,50898
"1,3-propanediol",50898
central nervous system depression,50898
2-amino-5-phosphonovalerate,50898
Siluriformes,50898
valaciclovir,50898
signet ring,50898
South-Central Asia,50898
Immune tolerance,50898
scatterplot smoothing,50898
PPP3R1,50898
GCH1,50898
Rip1,50898
Romanians,50898
remoxipride,50898
Rey-Osterrieth complex figure,50898
stachyose,50898
peregrines,50898
O-2050,50898
ITIH4,50898
JMJD1C,50898
extravehicular activity,50898
canine distemper,50898
Harderian glands,50898
servo,50898
ACTB,50898
epispadias,50898
reuterin,50898
Anterior pituitary,50898
AP3S2,50898
MAP2K5,50898
CDH4,50898
acetogenin,50898
Borsuk-Ulam theorem,50898
barrier membrane,50898
MCCC1,50898
Hoplosternum littorale,50898
Cascais,50898
ecdysteroid,50898
neurocognitive rehabilitation,50898
strike-slip fault,50898
crural fascia,50898
electron binding energy,50898
trans-resveratrol,50898
division algebra,50898
ifenprodil,50898
methapyrilene,50898
Isparta,50898
ERp57,50898
Cd200,50898
regional setup,50898
Melanesia,50898
Flamborough,50898
stone free,50898
autecology,50898
Tenotomy,50898
Hounsfield unit,50898
micro-injection,50898
Sopelana,50898
hepatogastric ligament,50898
Snooker,50898
SLC6A12,50898
Mont Ventoux,50898
olfactory pathways,50898
XL184,50898
bivalent chromatin,50898
weevil,50898
KRT80,50898
ammonites,50898
HK97,50898
CONAN,50898
effective molarity,50898
sleep paralysis,50898
Defiant,50898
R squared,50898
Turbidity current,50898
FIGC,50898
BA40,50898
Adenosine monophosphate,50898
seismometer,50898
entomology,50898
Agaricomycetes,50898
SYT11,50898
Carbidopa,50898
Spermatophytes,50898
NAC shell,50898
agglutinate,50898
Mitral valve prolapse,50898
Rhamdia,50898
Hatia,50898
fed 1,50898
The listeners,50898
Gutta-percha,50898
satellite records,50898
KCNK16,50898
Internet geography,50898
chronotherapy,50898
phenolates,50898
femtosecond pulse shaping,50898
Epidural,50898
Babylonia,50898
Dmitry Medvedev,50898
registered copyright,50898
development capital,50898
personalized health care,50898
Abandonments,50898
resource description framework (RDF),50898
scheduling theory,50898
100 year flood,50898
Christian Wolff,50898
Abernethy,50898
psychiatric emergency services,50898
Catastrophic injuries,50898
liquid bandage,50898
ACGME,50898
yf,50898
Krakow,50898
Abiotrophia,50898
secretary problem,50898
cultural resources management,50898
Carattoli,50898
Trepat,50898
rational investors,50898
Bogdanovic,50898
The forecast,50898
hypermethioninemia,50898
lead nitrate,50898
enterostomy,50898
action target,50898
Atrasentan,50898
Ilm,50898
platform-as-a-service,50898
car insurance,50898
Trouw,50898
trans-boundary river,50898
coral reef protection,50898
lusus,50898
nearsightedness,50898
Gabitril,50898
Neugebauer,50898
political psychology,50898
Vicious,50898
delegated authority,50898
penal era,50898
Aslin,50898
Instrumental variables,50898
bilateralism,50898
Business organization,50898
traffic collision,50898
abhorrence,50898
Thiazine,50898
Beijing 2008 Olympic Games,50898
acoustic startle reflex,50898
lowess,50898
Structured digital abstract,50898
air traffic management,50898
neophobic,50898
extreme ways,50898
G2B,50898
internal realism,50898
AdS/QCD correspondence,50898
Eocene Thermal Maximum 2,50898
WEA,50898
constructive reverse mathematics,50898
southern range,50898
Macaque,50898
energy carrier,50898
Wireless Sensor Networks,50898
WESSELING,50898
mainland southeast Asia,50898
multiplayer online,50898
Bonaventure,50898
homotopy equivalence,50898
CHr,50898
nutrient allocation,50898
Robert Jacob,50898
I/O-bound,50898
urethral cancer,50898
legal sociology,50898
World Cafe,50898
Welf,50898
scurvy,50898
relational contract,50898
contras,50898
helium dimer,50898
housing benefit,50898
Schiller,50898
Cervical Intraepithelial Neoplasia,50898
Suaeda aralocaspica,50898
social stories,50898
footedness,50898
perfluorooctanesulfonamide,50898
proper morphism,50898
Pen Duick,50898
Workplace health promotion,50898
Mindfulness-Based Stress Reduction,50898
Food choice,50898
cutis gyrata,50898
digital history,50898
force-sensitive,50898
Surface Plasmon Resonance (SPR),50898
Gastrectomy,50898
UC2,50898
synaesthetes,50898
L'Enfant,50898
HIP1R,50898
hypnagogic hallucinations,50898
osum,50898
muscle breakdown,50898
intestinal angiodysplasia,50898
312T,50898
Mitotic catastrophe,50898
post-traumatic epilepsy,50898
Hemorrhoids,50898
CD16/32,50898
deworming,50898
keratin 14,50898
recessive X-linked,50898
Laryngectomy,50898
thirty-first,50898
virtual pairs,50898
gastrocolic ligament,50898
extra challenge,50898
NRIP1,50898
medical physicist,50898
TVO,50898
LEPR,50898
Chittagong Hill Tracts,50898
Tremellales,50898
brigatinib,50898
Exelixis,50898
Quaternary Science Reviews,50898
canertinib,50898
euthanize,50898
arimoclomol,50898
H2N2,50898
Alberton,50898
Mental status,50898
superplume,50898
B. pilosicoli,50898
Polymyxin B,50898
signet ring cells,50898
Brigatinib,50898
gastrosplenic ligament,50898
fenoldopam,50898
longevity genes,50898
Type I interferons,50898
COL4A5,50898
CLOZ,50898
Numb,50898
ectopic thymus,50898
limen insulae,50898
Siberian shelf,50898
FE2,50898
oceanic carbon cycle,50898
Center frequency,50898
Bertinoro,50898
Tristan,50898
monogeneric,50898
Short Tandem Repeat,50898
Trans-Himalaya,50898
Armalcolite,50898
transverse mesocolon,50898
Current mood,50898
fed 2,50898
respiratory arrest,50898
primary myelofibrosis,50898
Sultanhani,50898
Brachyspira pilosicoli,50898
underplate,50898
Temporal bone,50898
Flycatcher,50898
primary implant stability,50898
pontine glioma,50898
Tunica,50898
Speech recognition,50898
Asian Monsoon,50898
Mbarara Regional referral Hospital,50898
Sebacinales,50898
Neofelis,50898
taurine metabolism,50898
earth system science,50898
CEUB,50898
FOLR1,50898
glycobiology,50898
interferon regulatory factor 3,50898
pulsatile tinnitus,50898
MSAT,50898
oroclinal,50898
burgher,50898
mev,50898
Isoprostane,50898
keratin 18,50898
South West Asia,50898
tropomodulin,50898
vera,50898
MBNL1,50898
Western Uganda,50898
Agaricales,50898
protocadherin,50898
SERF,50898
Central American Seaway,50898
PPM1D,50898
militia,50898
Bandar Abbas,50898
growth factor-like domain,50898
microangiography,50898
LRRC8A,50898
neurotransmitter transporters,50898
e313,50898
specific charge,50898
De humani corporis fabrica,50898
MUSASHI,50898
false lumen,50898
Sunda clouded leopard,50898
Clavaria,50898
SYVN1,50898
SPRY3,50898
dopamine D3 receptor,50898
memory T,50898
Baikal seal,50898
autophony,50898
Crystal lattice,50898
Belemnites,50898
Sebacinaceae,50898
Immune dysregulation,50898
Vinflunine,50898
SPRY4,50898
chalcedony,50898
untilted,50898
J 4,50898
professional soldier,50898
c-sections,50898
Marlboro,50898
oligodendrocyte progenitor cell,50898
sex-reassignment surgery,50898
zomepirac,50898
treason,50898
GIG,50898
Tremellaceae,50898
Hungarian algorithm,50898
Tnfr1,50898
elastic structures,50898
gliding motility,50898
Vaginal dryness,50898
CD276,50898
e25,50898
Bupropion,50898
Ovum,50898
late Barremian,50898
CG4,50898
Psathyrellaceae,50898
aubrite,50898
KJMA,50898
DBLP,50898
David Joris,50898
Isotomidae,50898
Staphylinoidea,50898
procapsids,50898
Pro-choice,50898
clapping,50898
Havasupai,50898
colimit,50898
Nintendo,50898
Brighton,50898
dye-sensitized solar cell,50898
electro-optic modulator,50898
fellow citizen,50898
Moral psychology,50898
conditional value-at-risk,50898
identity negotiation,50898
clean technology,50898
social support questionnaire,50898
cys-loop receptors,50898
compute clusters,50898
Nikolai Berdyaev,50898
Methylxanthine,50898
Radiology Information Systems,50898
healthy choice,50898
Central tendency,50898
CFRG,50898
palaeoclimatology,50898
Pif,50898
nor'easter,50898
Aviva Canada,50898
rebar,50898
LTPP,50898
partial-equilibrium,50898
overseas countries,50898
uniprot,50898
Altay Mountains,50898
megadeltas,50898
purchase funnel,50898
cvs,50898
San Vincenzo,50898
Chemical potential,50898
Marine Spatial Planning,50898
Greek constitution,50898
weather simulations,50898
frostbite,50898
random static,50898
Amphidromus,50898
Achaemenid,50898
VEGF Receptor,50898
DE HAAN,50898
optical prism,50898
interventional pain management,50898
externalising behaviour,50898
cardiac shunt,50898
erythrocytosis,50898
KNAW,50898
inquisitorial,50898
Bone morphogenic proteins,50898
solid freeform fabrication,50898
Pampus,50898
The unguided,50898
unipolarity,50898
B&B,50898
Multiple Myeloma,50898
sigmoidal shape,50898
D24,50898
scheelite,50898
Management Plan,50898
American founders,50898
feedback vertex set,50898
block-matching algorithm,50898
Flux balance analysis,50898
benzanthrone,50898
R-peak,50898
Lubbers,50898
Hexaemeron,50898
SMAS,50898
medical imaging technology,50898
data loading,50898
function space,50898
pulse shaper,50898
Moore neighborhood,50898
KiSS1R,50898
Situational Leadership,50898
Kirkham,50898
Portion size,50898
fixed income,50898
The New Life,50898
relative strangers,50898
Authorized Economic Operator,50898
houseflies,50898
carbohydrate loading,50898
Q5,50898
live attenuated influenza vaccine,50898
neural synchrony,50898
Activity-based costing,50898
cyanoacetamide,50898
Annas,50898
geometric point,50898
Correctional Services,50898
SRCAP,50898
P300/CBP,50898
flow chemistry,50898
Regional Spatial Strategy,50898
Steensel,50898
urban township,50898
chronic myelomonocytic leukaemia,50898
RISD,50898
Brussels Capital region,50898
hypoalbuminaemia,50898
cul-de-sac,50898
Gobi desert,50898
drive shaft,50898
Universal Soil Loss Equation,50898
North Coast,50898
Conditioned place preference,50898
auxiliary sciences,50898
cotton wool,50898
CDH6,50898
JoVE,50898
non-ionising radiation,50898
picolinate,50898
aggrecanase,50898
Schizophyllaceae,50898
Bursectomy,50898
Moxonidine,50898
otic vesicle,50898
Mineralogy,50898
placental pathology,50898
transfect,50898
advanced glycation end-product,50898
enstatite chondrite,50898
WNT3,50898
nuclear fission,50898
Ketogenic diet,50898
Protein kinase A,50898
seismic wave,50898
ADAMTS4,50898
BCL11B,50898
lens dislocation,50898
Cabozantinib,50898
performance-enhancing drugs,50898
spondylarthropathy,50898
Lymphoblast,50898
GUCY1A3,50898
hip flexor,50898
sparse matrix,50898
intrusive rock,50898
HLA-DQB2,50898
Jahrum,50898
SREBP-1,50898
rapid eye movement,50898
Cysteamine,50898
Dvorak,50898
e39,50898
LPIN,50898
hominine,50898
Aeration,50898
Mi-2,50898
TGN.,50898
Cd1d,50898
nucleoporin 62,50898
ABHD12,50898
edaravone,50898
micro-continent,50898
MICAL3,50898
Fluoranthene,50898
nuclear pore complex,50898
RAD51L1,50898
volume-regulated anion channel,50898
alternative networks,50898
androstenone,50898
Galvanic vestibular stimulation,50898
Urban metabolism,50898
Cognitive load,50898
rare objects,50898
psychographics,50898
eddy current,50898
Harden,50898
Mahalanobis,50898
apodictic,50898
pro-life,50898
neo-positivist,50898
Mare Aux Songes,50898
Mallampati,50898
time sharing,50898
welfare culture,50898
El-Nino,50898
public history,50898
Fenland,50898
Carnegie Mellon University,50898
User testing,50898
Hypermethioninemia,50898
Polarizability,50898
Greater Mekong Subregion,50898
binaurally,50898
Colonel,50898
viscose,50898
gullied,50898
The Comet,50898
South Atlantic gyre,50898
Peloritani,50898
Teltow,50898
traffic sign,50898
Value Added Tax,50898
species sorting,50898
Comparative statics,50898
Remicade,50898
Thune,50898
The green wall,50898
asenapine,50898
anatomically modern humans,50898
alpine meadow,50898
Trave,50898
vegetable juice,50898
sJ,50898
Pacific bluefin,50898
natural monopoly,50898
Laconia,50898
Lancang River,50898
e-Government,50898
APX-hard,50898
codomain,50898
paragliding,50898
Magdalena River Valley,50898
Church Fathers,50898
justinian,50898
Achefer,50898
monoisotopic mass,50898
gluten-related disorders,50898
Parliamentarism,50898
casualty insurance,50898
Ironside,50898
Matthias,50898
philosophical hermeneutics,50898
functional power,50898
"beta-carotene 15,15'-monooxygenase",50898
SAS System,50898
knowledge retrieval,50898
rough treatment,50898
trigger list,50898
direction cosine,50898
evolutionary anthropologists,50898
cognitive archaeology,50898
open cover,50898
Samsung,50898
TESP,50898
landfall,50898
laurel forest,50898
Social Intuitionist,50898
nuisance variable,50898
DJI,50898
The Wire,50898
triphenylphosphine oxide,50898
economic liberalism,50898
Cholevinae,50898
radioastronomy,50898
criminologist,50898
Chow group,50898
dermorphin,50898
Remifentanil,50898
Huanghe,50898
Simulation software,50898
glycol nucleic acid,50898
Urate,50898
The cube,50898
Emo,50898
Children Without Worms,50898
North-Brabant,50898
microelectromechanical systems,50898
1.0-point,50898
ACP countries,50898
Salant,50898
perceived stress scale,50898
FASTA format,50898
Iranian Americans,50898
17 people,50898
phosphaturia,50898
Tianyuan,50898
microencapsulation,50898
cationic liposome,50898
collage,50898
The accusers,50898
Governor,50898
Nesque,50898
Instituto de Salud Carlos III,50898
Svecofennian orogeny,50898
TV3,50898
Gates Foundation,50898
Neethling,50898
share repurchase,50898
MapReduce,50898
bronchogenic cyst,50898
Central American Isthmus,50898
cumulonimbus cloud,50898
status symbol,50898
Boreas,50898
middle range theory,50898
peppered moth,50898
salivation,50898
marfanoid,50898
luxol fast blue,50898
Factor 5,50898
patients association,50898
A Secular Age,50898
AdRA,50898
SEV,50898
lifestyle disease,50898
scapulothoracic joint,50898
peak season,50898
mesophytic,50898
road congestion pricing,50898
superconducting magnet,50898
affinity analysis,50898
Samoan Islands,50898
Naranjo,50898
KwaZulu-Natal Province,50898
latticework,50898
Burdekin,50898
major hurricane,50898
parabiosis,50898
epiphenomenalism,50898
LSTs,50898
parathyroid hormone receptor,50898
Danser,50898
emergency service,50898
Charismatic,50898
Scurvy,50898
harmaline,50898
evolutionary genetics,50898
depth-of-field,50898
petiole,50898
Kazama,50898
Leiodidae,50898
gas stove,50898
transaction manager,50898
Antarctic circumpolar current,50898
multidimensional systems,50898
digestive enzyme,50898
air navigation service provider,50898
Forbes Avenue,50898
lipschitz continuity,50898
legal culture,50898
final lap,50898
Hawk-Dove game,50898
tryptic soy agar,50898
mucinous cystadenocarcinoma,50898
radical chemistry,50898
International Polar Year,50898
Traumatic Brain Injuries,50898
religious pluralism,50898
Nogo,50898
MMORPG,50898
World Economic Forum,50898
structural break,50898
public health genomics,50898
future days,50898
Biodiversity Hotspots,50898
Jonathan Haidt,50898
direct democratic,50898
Principal cells,50898
Bayesian Decision Theory,50898
ghost mode,50898
Branch-and-Bound algorithm,50898
Elasticity theory,50898
Receptive language,50898
"Hunter, R.",50898
defensive wall,50898
structural balance,50898
primitive neuroectodermal tumor,50898
Sebastian Castellio,50898
SmartPLS,50898
canon law,50898
WoON,50898
fore-arc basin,50898
Graaff-Reinet,50898
immunocompromised host,50898
Swellendam,50898
Cientifico,50898
South Pole station,50898
erythropoeisis,50898
anthroposophic,50898
Interaction Model,50898
Batu Islands,50898
MOL,50898
functional ecology,50898
weighted projective space,50898
true knowledge,50898
casemate,50898
triple bar,50898
TALA,50898
AFG3L2,50898
Lempel-Ziv,50898
North Atlantic Treaty Organization,50898
bioenergy program,50898
LINE1,50898
Kettlewell,50898
G200,50898
call spread,50898
gradient boosting,50898
Palm Sunday,50898
Zooarchaeology,50898
AdS/QCD,50898
Memorial-Sloan Kettering Cancer Center,50898
inter-organizational networks,50898
Pulse rate,50898
iso-octane,50898
hypsodont,50898
Pan-STARRS,50898
HydroGeoSphere,50898
Mid-Atlantic ridge,50898
Palmer Drought Severity Index,50898
recreational travel,50898
wolframite,50898
speech impediment,50898
homotopy fiber,50898
Meridional,50898
bollard,50898
cryptophyceae,50898
wheat allergy,50898
continuous time Markov chain,50898
widgets,50898
non-small cell lung carcinomas,50898
Gentile,50898
IUPAP,50898
Laurentide Ice sheet,50898
Pyuria,50898
Multilevel model,50898
Wasserstein metric,50898
classroom design,50898
Amsterdam Schiphol airport,50898
head direction cells,50898
Delta chi,50898
Alphas,50898
Interdecadal Pacific Oscillation,50898
The motors,50898
Thunnus orientalis,50898
compensatory hyperhidrosis,50898
System Usability Scale (SUS),50898
greenhouse gas inventory,50898
Decretum Gratiani,50898
combined effectiveness,50898
Suprachiasmatic nucleus,50898
Climate justice,50898
Neanderthals,50898
affinity tags,50898
excluded middle,50898
analog environment,50898
Darwinian medicine,50898
positive law,50898
Camaenidae,50898
crustacyanin,50898
co-NP,50898
feedback theory,50898
maritime climate,50898
Homophone,50898
Atto-,50898
Marnitz,50898
George McCall Theal,50898
normal phase chromatography,50898
Whole Exome Sequencing,50898
STMN1,50898
85 subjects,50898
Ophthalmic acid,50898
Nasalance,50898
Gerontology,50898
Bluetooth,50898
starch production,50898
ecomorphology,50898
Strategic Environmental Assessment,50898
Earthquake,50898
The villages,50898
Santiago de Chile,50898
geocaching,50898
craniopharyngiomas,50898
highlander,50898
Mary Douglas,50898
plaintiff,50898
IMTA,50898
millilitre,50898
Child Protection Services,50898
pseudohypoaldosteronism,50898
measuring tape,50898
Business cycle,50898
medial collateral,50898
Frankfurt school,50898
circumpolar Arctic,50898
gluten ataxia,50898
antisymmetry,50898
Liquid-based cytology,50898
t-butyl cation,50898
indoor air pollution,50898
nipple-areola complex,50898
Land reform,50898
plane strain,50898
Internal medicine,50898
compulsory education,50898
lodo,50898
buccal swab,50898
Pde6b,50898
IGFBP4,50898
picorna-like,50898
Blood lipids,50898
flame speed,50898
Giessen,50898
food science,50898
carbon stores,50898
Brightness temperature,50898
Ileitis,50898
Ascending aorta,50898
everyday health,50898
log-linear analysis,50898
triethylaluminum,50898
salp,50898
Druze,50898
IPCC AR5,50898
conformal map,50898
WVKL,50898
Vertebral artery,50898
DAX,50898
vassal,50898
Jacobins,50898
New Imperial,50898
PPP2R2A,50898
Group Therapy,50898
essential fatty acids,50898
primary transcript,50898
High Performance Thin Layer Chromatography,50898
solution curve,50898
B-factory,50898
SimpleDB,50898
changing focus,50898
building code,50898
reference marker,50898
A. inversus,50898
48 hrs.,50898
Fram Strait,50898
patient focus,50898
labelling practices,50898
BAZ1B,50898
management control system,50898
Financial Services Commission,50898
transsulfuration pathway,50898
alloenzyme,50898
high-valent iron,50898
price taker,50898
atmospheric carbon cycle,50898
Brooklyn,50898
strong emergence,50898
Jomanda,50898
Codex Justinianus,50898
conversion narrative,50898
EMDT,50898
Hyblean plateau,50898
community organizer,50898
Empathy Quotient,50898
infra-mammary fold,50898
mining engineering,50898
Triatoma,50898
French Canadians,50898
Contrast ratio,50898
chemical valence,50898
Genstat,50898
Cerro de Pasco,50898
testas,50898
swimsuit,50898
Staffordshire,50898
intralocus conflict,50898
entropy production,50898
QR-code,50898
ovarian torsion,50898
Digital Elevation Model,50898
demand management,50898
contracts-for-difference,50898
antibody-dependent enhancement,50898
multilevel selection,50898
millipede,50898
Thalia,50898
Sapporo Medical University,50898
Reykjanes,50898
volumetric imaging,50898
lunatic asylum,50898
epoetin beta,50898
Prognathodon,50898
Basal ganglia (BG),50898
North American Craton,50898
Model checking,50898
Septicemia,50898
online newspaper,50898
succinic anhydride,50898
Kintyre,50898
plasticine,50898
childhood absence epilepsy,50898
HBase,50898
post-traumatic growth,50898
Navarre,50898
Sowetan,50898
Health 2.0,50898
Group F,50898
furanone,50898
hemoglobin F,50898
LULUCF,50898
Vijayakumar,50898
Julus scandinavius,50898
Aplysina archeri,50898
Neurodegenerative disease,50898
Alpha-amylase,50898
triacylglycerol lipase,50898
Gas chromatograph,50898
Excessive daytime sleepiness,50898
Vestmannaeyjar,50898
hyperhydrosis,50898
passive immunisation,50898
bipolar spectrum disorder,50898
Dossenheim,50898
bioaccumulate,50898
Sporozoite,50898
Chinook,50898
PIFS,50898
stem-cell therapy,50898
Endo180,50898
popular science,50898
PIK3CG,50898
Mennonite,50898
Biceps Brachii,50898
Popline,50898
enzyme catalysis,50898
actuate,50898
cultural mapping,50898
vitamin-D,50898
Heteroscedasticity,50898
Marine Isotope Stage 11,50898
epistemologist,50898
Mongibello,50898
Y98,50898
GRM5,50898
tTGs,50898
S-adenosyl-methionine,50898
Charismatic leadership,50898
pistol,50898
bowel rest,50898
Karlsruhe,50898
Schauder fixed point theorem,50898
ADAMTS8,50898
sodium cyanoborohydride,50898
SULT2A1,50898
sophiological,50898
benign neoplasm,50898
deep-frying,50898
individual rings,50898
Procambarus fallax,50898
CRISPR interference,50898
silver nanoparticle,50898
Vertex Cover,50898
Richmond Agitation-Sedation Scale,50898
enhanced Cd,50898
SaOS-2 cells,50898
absorbing Markov chain,50898
Portfolio optimization,50898
Sidr,50898
Muridae,50898
modelling clay,50898
chronic hallucinatory psychosis,50898
HAMAs,50898
IANs,50898
growth hormone-releasing hormone,50898
properly basic,50898
tenecteplase,50898
cLogP,50898
World Heritage Area,50898
olistoliths,50898
R120,50898
laterite,50898
optic fiber,50898
DSME,50898
data grid,50898
thymidylate synthetase,50898
Agricultural Research Service,50898
Ficedula hypoleuca,50898
TBB,50898
benign neoplasms,50898
Australian rules football,50898
sudomotor,50898
KAL1,50898
bioprospecting,50898
orthopaedists,50898
Adenosine diphosphate,50898
job control language,50898
worm-like chain,50898
twin twin,50898
countable space,50898
alpha-equivalence,50898
polychaete,50898
glass sponge,50898
house price indices,50898
Murialdo,50898
Ethiopian Jews,50898
elderly abuse,96121
choledochal cysts,50898
Respiratory diseases,50898
Ochiai,50898
triopoly,96125
Place cells,50898
light echo,50898
historical-critical,50898
large pupils,50898
Anaplastic large cell lymphoma,50898
physician-attended,50898
fixed pattern noise,50898
Virtual Processor,50898
Nancy Fraser,96134
2004 European parliamentary elections,50898
Pressure ulcer,50898
Samsu-iluna,50898
Paediatric Dentistry,50898
restraint bias,50898
Swine influenza,50898
Post Correspondence Problem,50898
Polyacrylate,50898
Thiocolchicoside,50898
GJ 758,50898
Human growth hormone,50898
Neve Ilan,50898
Integrated Reporting,50898
Froude efficiency,50898
Satellite imagery,50898
Displacing,50898
cerebral vasculitis,50898
Geometric Brownian motion,50898
computer language,50898
Germanic Europe,50898
Japanese tissue,50898
serotonin receptor agonist,50898
FOA,50898
pirus,50898
Rydberg atom,50898
Recreational road,50898
"Holloway, London",50898
Cuxhaven,50898
early imperial,50898
Eusebius,50898
Chemical Weapons Convention (CWC),50898
unitary dilation,50898
bounded lattice,50898
ivory-billed woodpecker,50898
reverse hierarchy,50898
awari,50898
private good,50898
Betulin,50898
Ukrainians,50898
crisis theory,50898
Steve Biko,50898
Sumoylation,50898
Equitable Life Assurance Society,96177
Notch proteins,50898
Sildenafil citrate,50898
CASSANDRA,50898
reciprocal teaching,50898
Distraction osteogenesis,50898
Intrusion Detection Systems,50898
Postural orthostatic tachycardia syndrome (POTS),50898
Bayes Network,50898
Pseudohallucination,50898
Assistive technologies,50898
Paleosalinity,50898
trolley car,50898
acceptance sampling,96190
high flight,50898
Acyl carrier protein,50898
Pattern formation,50898
monomictic,50898
Mirror symmetry,50898
Complex Event Processing (CEP),50898
Sapajus,50898
freeriding,96198
organic light emitting diode,50898
predator satiation,50898
Systemic mastocytosis,50898
quantitative structure activity relationships,50898
Regulatory reform,50898
Psychiatric rehabilitation,50898
acetone oxime,50898
Aquaporins,50898
photoautotroph,50898
Salomon,50898
parent-child interaction therapy,50898
chemical reaction network,50898
homorganic,50898
exametazime,50898
DLG3,50898
varroa mites,50898
Clonogenic assay,50898
Somali diaspora,50898
Seasonal adjustment,50898
Palm oil,50898
Jacobi identity,50898
Sex assignment,50898
Anti-Ro antibodies,50898
Herpes zoster,50898
hypoxic training,50898
OHG,50898
Under attack,50898
Reformed orthodoxy,50898
Ophthalmologic,50898
bifluoride,50898
San Joaquin Valley,50898
ligamentum flavum,50898
Fruit-dove,50898
barf,50898
Necrobiosis lipoidica,50898
Rotherslade,50898
Mode locking,50898
historical geography,50898
CDU,50898
Atomic beam,50898
integral kernel,50898
Guided bone regeneration,50898
Tracheoesophageal fistula,50898
Leicester,50898
fundamental forces,50898
Spastic cerebral palsy,50898
misogynist,50898
educational specialist,96246
Vibrational energy relaxation,50898
Dialysis adequacy,50898
Anaplasma,50898
Discodermolide,50898
Fresnel number,96251
semi arid,50898
clinical pathologists,50898
Conjugate addition,50898
time-domain reflectometry,50898
credential inflation,50898
anomeric position,50898
Copper(II) chloride,50898
Cervical incompetence,50898
Cyclophilin A,50898
electric form factor,50898
Ozanimod,50898
phaeochromocytoma,50898
Ovarian tumor,50898
Eidelberg,50898
Brian Garner Wybourne,50898
Pemphigoid,50898
Convatec,50898
Noise level,50898
Lupus miliaris disseminatus faciei,50898
Enamel matrix derivative,50898
fortieth,50898
Oxford Classical Text,96273
Leukocyte extravasation,50898
sustainable national income,50898
comodule,50898
Carbon Monoxide,50898
Donets Basin,50898
neonatal resuscitation,50898
Hyponatremia,50898
Loire,50898
Energy Charter Treaty,50898
Methylchloroisothiazolinone,50898
Thomas Friedman,50898
LAMARCK,50898
Jales,50898
Pex,50898
Atmospheric model,50898
The ashes,50898
Chronic lung disease,50898
native advertising,50898
MENS,50898
John Salt,50898
WEERT,50898
Carbonate platform,50898
Clostridia,50898
Organophosphate,50898
knighthood,50898
Vascular surgery,50898
Aplastic anemia,50898
invar,50898
VAN DIJCK,50898
Idiomarina,50898
Digraph,50898
flunisolide,50898
SeqA,50898
Organizational memory,50898
Leuser Ecosystem,50898
outplacement,50898
thioketone,50898
Ogden,50898
British Resident,97169
automatic image annotation,50898
multidimensional system,50898
TOTA,50898
barh,50898
celiac sprue,50898
Twin-to-twin transfusion syndrome,50898
facet theory,50898
Coartem,50898
epigean,50898
Flame Retardant,50898
MIPS,50898
Cementum,50898
WELY,50898
iomeprol,50898
expanded criteria donor,50898
Terror management theory,50898
Spin crossover,50898
lexical similarity,50898
Flora Malesiana,50898
developmental anatomy,50898
Silicon photonics,50898
HR8799,50898
machine-readable,50898
Frida Vogels,50898
Cause-related marketing,50898
Cointegration,50898
Generation Me,50898
Copper(II) nitrate,50898
MISC,50898
judgment proof,50898
Cultural-Historical Activity Theory,50898
Pontianak,50898
Orestes,50898
Inflammatory myofibroblastic tumor,50898
disaster medicine,50898
Prasiola,50898
TLK2,50898
Argininosuccinate synthetase,50898
cyanogenic glycosides,50898
Neanderthal,50898
CSRP3,50898
smoking mother,50898
Canary islands,50898
E27,50898
Cambisol,50898
Hit rate,50898
SSIM,50898
HAND2,50898
langmuir,50898
Fresno,50898
Daption capense,50898
osteostracan,50898
CuL2,50898
El Angel,50898
cylindrical lens,50898
Podospora anserina,50898
Anemochory,50898
Savyon,50898
electromagnetic wave,50898
chlorinated paraffin,50898
identity score,50898
Salt Range,50898
HC3N,50898
oliguric,50898
morphological opening,50898
S. dysenteriae,50898
abcd1,50898
metacentric,50898
MAP4K3,50898
zoonotic infection,50898
GW approximation,50898
CAR-T,50898
Elipse,50898
MPAL,50898
Blimp1,50898
trimeric autotransporter adhesin,50898
Tubificidae,50898
Soweto Uprising,50898
lucens,50898
disjunctly,50898
UCSF,50898
Zijpe,50898
potassium channel blocker,50898
skin group,50898
nuclear inclusions,50898
Kegel exercises,50898
cilnidipine,50898
Fick equation,50898
solar geoengineering,50898
Coornhert,50898
stellar merger,50898
Church History,50898
tris buffer,50898
LAME,50898
well-posed problem,50898
United Kingdom Infrared Telescope (UKIRT),50898
EcM fungi,50898
sublingual administration,50898
lateral cartilage,50898
Acetylcholinesterase,50898
brown moss,50898
recombinant methods,50898
site philopatry,50898
Bedwetting,50898
OriC,50898
mixed emotions,50898
hexosamine,50898
racquets,50898
Jewish holidays,50898
PISA studies,50898
POTS,50898
semisimple Lie algebra,50898
Photon polarization,50898
sporocarps,50898
interictal dysphoric disorder,50898
background count,50898
The glasses,50898
carbocaine,50898
geotaxis,50898
Critical Care Medicine,50898
GHRP-6,50898
Albrecht von Haller,50898
Papias,50898
Ashdod,50898
granulomatous rosacea,50898
FOH,50898
fucosidase,50898
thiocolchicoside,50898
hemozoin,50898
Bronchopneumonia,50898
Hygeia,50898
papillomavirus infections,50898
imaginary audience,50898
Snow Petrel,50898
EphB1,50898
vexation,50898
shopping centre,50898
orientalised,50898
dilution refrigerator,50898
Claustrophobia,50898
PPARalpha,50898
.AU,50898
olfactory lobe,50898
giddiness,50898
linear-elastic,50898
TRF1,50898
sumo1,50898
Andros Island,50898
archaeologist,50898
Population Attributable Risk,50898
RGMa,50898
scyllo-inositol,50898
Amsterdam boroughs,50898
Sex hormone,50898
Cryptoblepharus,50898
GVT,50898
dihydrochalcone,50898
Vitrinite,50898
GOMONT,50898
Regional autonomy,50898
+213,50898
Caesalpinioideae,50898
Bamako,50898
Potwar Plateau,50898
Bredero,50898
leaf beetle,50898
Sampurnanand,50898
habit reversal,50898
silvicultural,50898
Alexa 488,50898
corporate law,50898
Alford,50898
Gerhard Ritter,50898
QRP,50898
fundamental solution,50898
tropylium,50898
Canadian Dollar,50898
ciclesonide,50898
ASUKA,50898
Nangarhar province,50898
phototropic,50898
ctenidia,50898
diffusion weighted MRI,50898
Plasmodium ovale,50898
disperse dye,50898
acute myelomonocytic leukemia,50898
methodological dualism,50898
Curculio glandium,50898
Luciola cruciata,50898
electrooculography,50898
Finike,50898
conchoidal fracture,50898
HT1080 cells,50898
nivea,50898
Rendzina,50898
EfnB1,50898
SBB,50898
Internet addiction,50898
MACS J0025.4-1222,50898
MAVS,50898
Afro-Asian,50898
lupus miliaris disseminatus faciei,50898
alpine climate,50898
Barito River,50898
tallgrass prairie,50898
WASP-43b,50898
diethanolamine,50898
daidzin,50898
leprechaunism,50898
superorganism,50898
Swansea Bay,50898
Rizatriptan,50898
Shank3,50898
writhing number,50898
anosmin-1,50898
Tsuga,50898
conformal minimal models,50898
DnaB,50898
human ecosystem,50898
national-conservative,50898
SULT1A2,50898
embryo sac,50898
Acroporidae,50898
racial profiling,50898
ozanimod,50898
PLAGL1,50898
40 cal,50898
n11,50898
optical interference,50898
philosophical topics,50898
tuberculin test,50898
Gaia satellite,50898
Caddisflies,50898
liberation theologians,50898
Machakos,50898
hypothiocyanite,50898
jugular venous,50898
Aryabhatta,50898
LexA,50898
Perry Anderson,50898
Hindelang,50898
automated anatomical labeling,50898
Intermuscular coherence,50898
neurotrophin-3,50898
microgyria,50898
pyroxamine,50898
mycoheterotrophic,50898
ITPR1,50898
protein dimer,50898
Clathrin,50898
short-eared owl,50898
AES10,50898
REX1,50898
Grassmannian manifold,50898
Systemic Exertion Intolerance Disease,50898
miglitol,50898
ICZN,50898
Heusden,50898
CRHr1,50898
Lisuride,50898
Venograms,50898
Mantel test,50898
710G,50898
right-hemisphere,50898
Mount Dromedary,50898
Combretum,50898
REX2,50898
photoimmunotherapy,50898
terrestrial time,50898
aspiration pneumonitis,50898
relaxed muscle,50898
soluble cell adhesion molecules,50898
Neu,50898
Kitui,50898
Gaviiformes,50898
mixotroph,50898
leeds,50898
Maximum force,50898
Begonia,50898
Siemens Medical Solutions,50898
Veitch,50898
Vorbis,50898
P. serotina,50898
particle decay,50898
equatorial waves,50898
Nainital,50898
Extensor digitorum longus,50898
morphological case,50898
preliminary judgement,50898
Acetylcholine receptor,50898
KN-62,50898
Gorlovka,50898
Fritz Fischer,50898
l-selectin,50898
pirate,50898
NIPA1,50898
Respiratory Syncytial Virus,50898
Richard Bauckham,50898
leukocyte immunoglobulin-like receptors,50898
Desulfosporosinus,50898
Fischer-Tropsch process,50898
bornane,50898
Bartsch,50898
autonomic processes,50898
global mirror,50898
slow scan,50898
American beech (Fagus grandifolia),50898
alpha radiation,50898
impalements,50898
Coccolithophorids,50898
conspecificity,50898
Kiyohiko Azuma,50898
microtrauma,50898
SPO2,50898
Hardenberg,50898
silage,50898
inferior mesenteric arteries,50898
Azumanga Daioh,50898
M. barkeri,50898
Allan Boesak,50898
Aleuria,50898
M. africanum,50898
neurotrophin-4,50898
IRL,50898
phyllotaxy,50898
Hermitian matrices,50898
Gram-Schmidt orthogonalization,50898
type localities,50898
TrkB receptor,50898
occurrence matrix,50898
Ang II receptors,50898
ANT1,50898
atomic emission spectroscopy,50898
DQ,50898
self-reported ethnic origin,50898
Tlr6,50898
palm kernel oil,50898
inclined orbit,50898
alkalinities,50898
Anaesthesiologist,50898
Epidermal Growth Factor (EGF),50898
type 1 errors,50898
XG,50898
antihydrogen,50898
Tagged Image File Format,50898
MGH,50898
red maple,50898
computer experiment,50898
GRB 050709,50898
Alu domain,50898
clinical data acquisition,50898
ALX3,50898
BIX,50898
chlormadinone acetate,50898
malpresentation,50898
eustigmatophyte,50898
Parallel evolution,50898
Alloderm,50898
Agrostis capillaris,50898
TRIAC,50898
dead-ice,50898
hyperbolic coordinates,50898
catatonic schizophrenia,50898
potassium acetate,50898
gray matter heterotopia,50898
D-proline,50898
neutral endopeptidase,50898
palm kernel,50898
sift,50898
Pasteur Institute,50898
Inderal,50898
European classification,50898
lucerne,50898
Ryd,50898
Battelle Memorial Institute,50898
Clausius,50898
Arcus,50898
Anal sphincter,50898
Parainfluenza,50898
FOXM1,50898
enchondromatosis,50898
Il1b,50898
Desmond Tutu,50898
nucellar,50898
field records,50898
Sonneratia,50898
pumping station,50898
ascus,50898
vowel triangle,50898
thrombotic microangiopathies,50898
neonatal diabetes,50898
angiography system,50898
historicism,50898
microsporangium,50898
EcM,50898
IS-1,50898
Additive genetic effects,50898
Anthoxanthum,50898
RMSd,50898
CMC group,50898
Clinique,50898
sit-and-wait predator,50898
TSP1,50898
cuboid,50898
measuring well-being,50898
White-shouldered Ibis,50898
viscous friction,50898
CATH database,50898
Mopsuestia,50898
LDLC,50898
NGC 1624,50898
white ash,50898
hyalinized,50898
PEPC,50898
Fibrin sealant,50898
Katowice,50898
VLF,50898
brown rot,50898
Thismia,50898
Data preprocessing,50898
Penetrance,50898
structural superposition,50898
Overdiagnosis,50898
Finite difference,50898
diagnostic X-ray,50898
entorhinal-CA1 system,50898
CAPRIE,50898
Commiphora,50898
Ethiopian Rift Valley,50898
melengestrol acetate,50898
high-density polyethylene,50898
CNDO,50898
total annihilation,50898
1b2,50898
roflumilast,50898
MAP kinase kinase,50898
formula composition,50898
azoospermic,50898
DDX5,50898
cognitive ergonomics,50898
E59,50898
isopentenyl pyrophosphate,50898
Reformed orthodox,50898
Monocline,50898
G-50,50898
hypertensive crises,50898
kraft pulp,50898
lignified,50898
Fraxinus Americana,50898
Lowry,50898
Pseudemys,50898
capsicum,50898
macule,50898
olfactory receptor cells,50898
SG1,50898
C.S.,50898
Wavelet compression,50898
periodic variation,50898
bedforms,50898
ROPED,50898
parapsychology,50898
berberine,50898
calpastatin,50898
National League,50898
torquoselectivity,50898
Barn owl,50898
Wedel,50898
Thismiaceae,50898
calcium dobesilate,50898
Cilnidipine,50898
trimethaphan,50898
in-situ conservation,50898
X environment,50898
workplace law,50898
Saint-Nazaire,50898
labial glands,50898
A186,50898
HexA,50898
alpha carbon,50898
alpha-methylstyrene,50898
Orchestia,50898
Pegaptanib,50898
Planctomycetales,50898
Minimum spanning tree,50898
proplastid,50898
Sensodyne,50898
dimethylallyl pyrophosphate,50898
Skopje,50898
MASTL,50898
Metapneumovirus,50898
red oak,50898
Syncline,50898
VND,50898
filter feeding,50898
FMO4,50898
obesity-related illnesses,50898
erythroblastosis,50898
global surveillance,50898
C. striatus,50898
ophthalmic nerve,50898
tuberin,50898
CD207,50898
Malbun,50898
NeuroD1,50898
M219,50898
Suits,50898
Bellevue,50898
Perforin,50898
Phaeochromocytoma,50898
methylhexanamine,50898
aerobe,50898
ASCT1,50898
Midland Valley,50898
Parechovirus,50898
olfactory lobes,50898
Femtosecond laser,50898
mtHSP70,50898
Wechsler memory scale,50898
waterdown,50898
quinupristin/dalfopristin,50898
match/mismatch,50898
Asio flammeus,50898
Radiolaria,50898
Glycosphingolipid,50898
geranyl pyrophosphate,50898
arcA,50898
Homophily,50898
Zamboni,50898
DNMT3L,50898
Micropotamogale,50898
RUNX1T1,50898
Magma,50898
Gypsum,50898
Steatorrhea,50898
caspase-2,50898
GHb,50898
Frenet frame,50898
CLEC,50898
Leucanthemum,50898
Galaxy formation,50898
pseudopod,50898
Politeia,96273
Hypopterygiaceae,50898
Pulsed radiofrequency,50898
NGC 2516,50898
nonseminomatous germ cell tumor,50898
environmental quality management,50898
anolyte,50898
Threadless,50898
ASME,50898
SnCl4,50898
ambiguous genitalia,50898
peakon,50898
quantum dimer model,50898
Dinaric Karst,50898
Hard Core,50898
Roberto Esposito,50898
expected effectiveness,50898
maximal compact subgroup,50898
indicator function,50898
Papuans,50898
transvaginal oocyte retrieval,50898
selfadjoint operator,50898
light transport theory,50898
land reform programme,50898
The World Is Flat,50898
employer organisations,50898
growth management,50898
Denizli,50898
electricity delivery,50898
Ptilinopus,50898
economic cycle,50898
snow avalanches,50898
Wahhabis,50898
Diego Maradona,50898
evangelical Christianity,50898
aberrant subclavian artery,50898
Sperm competition,50898
headlamp,50898
Echinoclathria,50898
Homoclinic bifurcation,50898
Panax ginseng,50898
United States dollar,50898
Calero,50898
oral implantology,50898
puberty induction,50898
Cuban missile crisis,50898
Gerbrand Bredero,50898
usability inspection,50898
projective resolution,50898
public employment service,50898
G-Loc,50898
Friedrich Meinecke,50898
Solv,50898
wealth concentration,50898
hypodiploidy,50898
Kimmel,50898
hand model,50898
ordinal optimization,50898
pharmaceutical sciences,50898
digital ecosystem,50898
M50,50898
phrased differently,50898
Gluten-free diet,50898
Ohnesorge number,50898
Walter Reed Army Medical Center,50898
NGC 4697,50898
thermodiffusion,50898
TSSA,50898
lens capsule,50898
Matav,50898
Olkaria,50898
HOR,50898
chemoheterotrophic,50898
Supernova Legacy Survey,50898
Jeremy Stein,50898
electro-technology,50898
guttate,50898
Ochrobactrum anthropi,50898
Isua Greenstone Belt,50898
male-pattern baldness,50898
orthostatic tremor,50898
Construal level theory,50898
perceptual disorders,50898
ACADS,50898
Expected utility,50898
Campephilus,50898
AETHER,50898
dioxygenation,50898
planctomycetes,50898
rapidly oscillating Ap star,50898
AQPs,50898
visco,50898
aryl chloride,50898
Hochst.,50898
Complex Event Processing,50898
Kakamega Forest,50898
Requirements Engineering,50898
melt-spun,50898
parallel lives,50898
Ferrara,50898
diisobutylaluminum hydride,50898
audio compression,50898
Bacillaceae,50898
Dicymbe,50898
counterparty credit risk,50898
PCEP,50898
perfect substitutability,50898
electronic patient record system,50898
cerebral aneurysm,50898
identity function,50898
Community Benefits Agreement,50898
active pharmaceutical ingredient,50898
differential structure,50898
Pentagon,50898
molecular magnet,50898
chronic allograft nephropathy,50898
Kamioka,50898
enterprise integration,50898
long side,50898
The Adolescent,50898
piezoelectric material,50898
velocity channel,50898
dynamic functional connectivity,50898
Jessica,50898
ERASMUS,50898
Reunion hotspot,50898
Green Revolution,50898
temperate coniferous forest,50898
Middle English,50898
syncopated,50898
Sabotage,50898
vox pops,50898
Abell 1689,50898
red cabbage,50898
"Natural History Museum, London",50898
management consulting,50898
"Amsterdam, New York",50898
product extension,50898
multidimensional organization,50898
odin,50898
Gower Peninsula,50898
methylselenocysteine,50898
Speech Language Pathology,50898
preconditioner,50898
digital domain,50898
agronomy,50898
The realist,50898
Maharaja,97169
KMT,50898
RES group,50898
diethylene triamine,50898
USP14,50898
Maldevelopment,50898
coxa valga,50898
Electrostatic potential,50898
mesitylene,50898
The cut,50898
plasma diagnostics,50898
primary immune deficiencies,50898
phosphatidylinositol-3 kinase,50898
Rinorea,50898
clinical pharmacologist,50898
Steyerberg,50898
labial gland,50898
myorelaxant,50898
Kattegat,50898
Afrotheria,50898
Reed International,50898
CrkL,50898
Overhauser Effect,50898
Gcn2,50898
syntaxon,50898
chlorinity,50898
anaerobic exercise,50898
superluminal motion,50898
hemoglobin electrophoresis,50898
crotonyl-CoA,50898
allophane,50898
dolines,50898
Phosphoproteomics,50898
Sida,50898
KLIP,50898
eustacy,50898
Tournaisian,50898
canola oil,50898
sugar maple,50898
chromatic aberration,50898
SNX5,50898
latrunculin,50898
sodium-calcium exchanger,50898
pseudopodia,50898
Geologists' Association,50898
mitochondriopathy,50898
slab pull,50898
inflationary bias,50898
hamartin,50898
masking agents,50898
electrical efficiency,50898
1H-benzotriazole,50898
Morella,50898
Permutation,50898
Huon Peninsula,50898
rac2,50898
DSi,50898
Favia,50898
Happ,50898
I-41,50898
Nr3c1,50898
koala,50898
ARCA,50898
potassium thiocyanate,50898
hyponatremic,50898
Paimboeuf,50898
Favites,50898
EAAT1,50898
Lemna trisulca,50898
spoilage bacteria,50898
CTNNAL1,50898
redistribution reaction,50898
HoH,50898
Clofibrate,50898
TRP channels,50898
FRONTLINE,50898
ELSEVIER B.V.,50898
kynureninase,50898
SYBR green I,50898
semitone,50898
relative fluorescence units,50898
Y14,50898
Gran Canaria,50898
propionates,50898
gibbsite,50898
Zymogen,50898
I-16,50898
6-phosphogluconolactonase,50898
Riccia fluitans,50898
plaque-forming unit,50898
PR-10,50898
biphenol,50898
MEKK1,50898
c-Jun N-terminal kinases,50898
profilins,50898
Axl kinase,50898
cysteine metabolism,50898
spectrochemistry,50898
HORT,50898
Organotins,50898
Antiepileptic drug,50898
gene set enrichment,50898
central chromatolysis,50898
scops-owl,50898
Hunts Bay,50898
IL-23P19,50898
nonstructural (NS) proteins,50898
respiratory hypersensitivity,50898
parvalbumins,50898
American College Of Cardiology,50898
E. densa,50898
acyl CoA dehydrogenase,50898
Comoro islands,50898
Glyceria,50898
Ammonia tepida,50898
Otus lempiji,50898
stifle joint,50898
WISP,50898
land bridge,50898
Gower,50898
tarsal joint,50898
Korosi,50898
Scheidt,50898
OROS,50898
Sakmarian,50898
Gravitational lensing,50898
Parotid gland,50898
adipsin,50898
Morena,50898
Alx4,50898
sculpin,50898
Donetsk,50898
Maracaibo basin,50898
esso,50898
industrial fermentation,50898
Kadievka,50898
primitive mantle,50898
foldamer,50898
miliolids,50898
U-46,50898
PX domain,50898
brine pools,50898
C166,50898
fetlock joint,50898
wellfounded,50898
Spectral flux density,50898
prenatal growth rate,50898
KMTs,50898
YLF,50898
Hamilton-Jacobi,50898
ST7,50898
trivector,50898
unsupervised learning,50898
Malgium,50898
risk-neutral measure,50898
pathological lying,50898
WSAT,50898
immunotherapeutics,50898
homologous parts,50898
logistic distribution,50898
anti-de Sitter spacetime,50898
non-monotonic logic,50898
Keuper Marl,50898
oxisol,50898
social fund,50898
gross substitutes,50898
anterolateral ligament,50898
webmail,50898
Lord Lytton,97169
21H,50898
Deeside,50898
supershell,50898
platonism,50898
Amami-Oshima,50898
Teletubbies,50898
Euripides,50898
Nangarhar,50898
RSGC1,50898
Isernhagen,50898
concurrent programming,50898
similarity invariant,50898
general linear group,50898
decision tree learning,50898
executional,50898
PEComas,50898
intrauterine hypoxia,50898
non-coding DNA,50898
Negev Bedouin women,50898
Gomont,50898
direct 3D,50898
GXT,50898
monotone function,50898
neutron generator,50898
Unity,50898
The unborn,50898
toll-like receptors (TLR),50898
rhenium-186,50898
POEs,50898
landscape archaeology,50898
F01,50898
"1,3-dichloropropane",50898
decision tree complexity,50898
Annales school,50898
Perrett,50898
British Medical Research Council,50898
Uddevalla,50898
human reliability,50898
rattan,50898
Current Sociology,50898
Maatschappij der Nederlandse Letterkunde,50898
parsimonious reduction,50898
SPITZER,50898
ESnet,50898
Raleigh,50898
syntagmatic,50898
East African rift valley,50898
Konso,50898
auditory threshold,50898
bare mass,50898
hypercubic lattice,50898
Avicennia Officinalis,50898
surfactant therapy,50898
bone spavin,50898
Weyl chamber,50898
Azores Islands,50898
Constable,50898
The incrementalists,50898
"Branford, Connecticut",50898
Temporomandibular joint,50898
hellenica,50898
food contamination,50898
Brachypodium pinnatum,50898
betaherpesviruses,50898
life jacket,50898
double cluster,50898
string dualities,50898
group attraction,50898
Social psychology,50898
halogenated compound,50898
Bugesera district,50898
Cerebral hypoxia,50898
underwriting profit,50898
psychiatric rehabilitation,50898
epialleles,50898
heuristic function,50898
Fraunhofer diffraction,50898
Chib,50898
telepathy,50898
reverse cascade,50898
Askey scheme,50898
black cherry,50898
Christian Democratic Party,50898
Professor Z,50898
NGC 1566,50898
crawler,50898
histopathological type,50898
Hexactinellida,50898
empirical aesthetics,50898
enyne metathesis,50898
LOTIS,50898
work design,50898
Royal Statistical Society,50898
Societas Europaea,50898
Carteriospongia foliascens,50898
Nyanza Province,50898
adme,50898
Holy Grail,50898
artisanal fishers,50898
retail price maintenance,50898
British Army,50898
Talbot,50898
NUMB,50898
Nicolay,50898
Pemba,50898
perirhinal area 35,50898
multivariate tests,50898
trequinsin,50898
formamidase,50898
cubic root,50898
Zanzibar,50898
PSAT1,50898
hydrothermal vein,50898
ageing brain,50898
7TM receptor,50898
Pfam,50898
Side-effect,50898
MAUG,50898
2-methylimidazole,50898
common tern,50898
FH3,50898
Grand Comore,50898
N199,50898
Boreoeutheria,50898
matrix group,50898
Urania,50898
saponified,50898
Vertic,50898
Roflumilast,50898
Lipotoxicity,50898
Laurasiatheria,50898
brain abscess,50898
hypoproteinemia,50898
Euarchontoglires,50898
patellar ligament,50898
ciliary ganglion,50898
schistosity,50898
Emotional exhaustion,50898
Dharamsala,50898
Stelfox,50898
B2 receptor,50898
theological anthropology,50898
ononin,50898
Amacayacu National Park,50898
national minimum wage,50898
Hamming scheme,50898
alpha Cen A,50898
oromandibular dystonia,50898
Prunella vulgaris,50898
topological complexity,50898
muqaddam,50898
G30,50898
Galilean invariance,50898
Falcarinol,50898
application profile,50898
kilocalorie,50898
locked rotation,50898
PNR,50898
Sexual intercourse,50898
Naguib Sawiris,50898
gacaca,50898
wrist osteoarthritis,50898
syntype,50898
animal migration,50898
welfare capitalism,50898
tea bag,50898
Schaan,50898
Nudibranch,50898
Thermochronology,50898
Zionism,50898
closed formula,50898
fecal impaction,50898
protem,50898
grand rounds,50898
anodization,50898
project governance,50898
leuco,50898
Machakos District,50898
nonwandering set,50898
anharmonicity constant,50898
Huygens-Fresnel principle,50898
anchialine cave,50898
The Five,50898
Accipiter gularis,50898
Pakistani military,50898
Andricus grossulariae,50898
regulatory competition,50898
Regina Schwartz,50898
Dirck Coornhert,50898
sodium silicate,50898
SUMO protein,50898
Child Helpline International,50898
Gonzaga,50898
Olver,50898
diadochokinesia,50898
karst topography,50898
Fazenda,50898
pico-,50898
advection-dispersion equation,50898
Anglo-Welsh Basin,50898
Congo basin,50898
radioactive fallout,50898
daily air,50898
perspective projection,50898
6DoF,50898
OvidSP,50898
limited dependent variable,50898
Jennifer Lopez,50898
realpolitik,50898
constitutional court,50898
C-125,50898
venture capitalist,50898
deindustrialisation,50898
online activism,50898
neutropaenia,50898
durotaxis,50898
Cow milk,50898
organizational memory,50898
Single bond,50898
Cromwell,50898
Big Woods,50898
BTZ black hole,50898
Unipennate muscle,50898
Eighth,50898
Unified Modeling Language,50898
senior homonym,50898
physiome,50898
Messier 95,50898
Carpinus betulus,50898
pomp,97169
The food chain,50898
Noetherian ring,50898
Piton de la Fournaise,50898
Brayton,50898
scincid,50898
HMP Holloway,50898
macrolichen,50898
Karamoja,50898
cluster compound,50898
Banten Bay,50898
isothermal flow,50898
Lent,50898
negative hyperconjugation,50898
hypermasculinity,50898
sampling plan,96190
Cho Oyu,50898
carework,50898
Deli,50898
supercritical fluid extraction,50898
fictitious domain method,50898
Kirschner wire,50898
vertical disintegration,50898
superadditivity,50898
Tantalum,50898
The catch,50898
Ino,50898
Ceccarelli,50898
Minidisc,50898
plane stress,50898
PV-1,50898
pRBC,50898
RGS protein,50898
club moss,50898
Epitheria,50898
Tortula ruralis,50898
hyperprior,50898
advanced biofuel,50898
Social fund,50898
Flunisolide,50898
postmodern culture,50898
Hemangioendothelioma,50898
Kerio,50898
Piton des Neiges,50898
Hydrilla verticillata,50898
tertian,50898
Cliona,50898
force majeure,50898
diurnal range,50898
driving age,50898
flash memory,50898
trace evidence,50898
Hospital type,50898
quadratic programming,50898
bee venom,50898
Coulomb operator,50898
cooling tower,50898
arctic-alpine,50898
Neptunea antiqua,50898
atropisomer,50898
Mark Juergensmeyer,50898
WOH G64,50898
Jacka,50898
nonamer,50898
life annuities,50898
Wilhelm His,50898
voice onset time,50898
von Recklinghausen,50898
louse,50898
soliloquy,50898
3D display,50898
lattice point,50898
Sorbonne,50898
Electronic medical records,50898
diagnosis-related group,50898
Madonna,50898
calcareous ooze,50898
Cyprus Arc,50898
post-materialism,50898
gauge-fixing,50898
M95,50898
The evacuees,50898
Cayley tree,50898
tile drainage,50898
Kulon Progo,50898
conditionally dependent,50898
biophysical environment,50898
Littrow,50898
planetology,50898
allopolyploid,50898
methoxyl,50898
lipoprotein lipase deficiency,50898
bandlimited,50898
Sonneratia caseolaris,50898
orthopantomogram,50898
mathematically correct,50898
nudibranch,50898
Northern Fulmar,50898
Biometrics,50898
double dual,50898
speech shadowing,50898
International Medical Informatics Association,50898
gadoterate,50898
Hydroxocobalamin,50898
Top 2000,50898
closed subgroup,50898
psychedelic art,50898
zoologist,50898
fiscal adjustment,50898
palatine glands,50898
RANK ligand,50898
"1,2-dimethoxybenzene",50898
collared flycatcher,50898
small animal imaging,50898
differential mode,50898
Sebangau National Park,50898
Burgundian,50898
Oral Oncology,50898
Adaptationist,50898
Career development,50898
2014 European Parliament elections,50898
angiotensin converting enzyme inhibitor,50898
oral hypoglycemic agent,50898
maximal subgroup,50898
Overprotection,50898
fiscal space,50898
Iodobenzamide,50898
gamma 3,50898
supervised learning methods,50898
Cytisus striatus,50898
corvee labor,50898
thermodynamic potentials,50898
death-thought accessibility,50898
chemical fingerprint,50898
Oldham,50898
cementoblast,50898
Zerah,50898
Cali,50898
Loiano,50898
P/B,50898
prefabrication,50898
The postponement,50898
spoil material,50898
Caribbean plate,50898
Batrachium,50898
Wahhabi,50898
constant linear velocity,50898
acetylcholinesterase (AChE) inhibitor,50898
wka,50898
social emotions,50898
Channel 3,50898
Labsystems,50898
CDKN1C,50898
Nouvelle,50898
patienthood,50898
collaboration platform,50898
set system,50898
E-10,50898
nitrosothiols,50898
GIS software,50898
electron micrograph,50898
sodium pentobarbital,50898
elementary extension,50898
Blur,50898
subsurface drainage,50898
ammonolysis,50898
NATO phonetic alphabet,50898
PISA 2012,50898
Afro,50898
Leiomyoma,50898
Psychological intervention,50898
GP1BA,50898
body fluid compartments,50898
Gomel,50898
Eliminativism,50898
Engler,50898
full subcategory,50898
inosine monophosphate dehydrogenase,50898
Peptide mass fingerprinting,50898
proprioceptively,50898
m60,50898
Evanescent wave,50898
draughts,50898
aldimine,50898
silver ball,50898
Hopf link,50898
adrenal incidentaloma,50898
fecundation,50898
Minor test,50898
propynyl,50898
Hierapolis,50898
Histone methylation,50898
The AGE,50898
reversible reaction,50898
real love,50898
left adjoint,50898
Nexin,50898
affine deformation,50898
Mopra,50898
non-verbal reasoning,50898
Egeria densa,50898
cowpea mosaic virus,50898
code 39,50898
Grunow,50898
welfare rights,50898
Peshawar,50898
Mesta,50898
epibiotic,50898
Stebbinsoseris,50898
procyanidin,50898
amygdalus,50898
AltaVista,50898
suid,50898
Ehrenb.,50898
Phytophthora ramorum,50898
reticular neurons,50898
alos,50898
Eastman Dental Institute,50898
DocBook,50898
motor fibers,50898
Belle experiment,50898
noise regulation,50898
nullification,50898
POSIX threads,50898
debulking operation,50898
RLC circuit,50898
viviparous,50898
CuBr,50898
bridged compounds,50898
August Weismann,50898
Odessa,50898
Japanese Yen,50898
production blocking,50898
HgH,50898
Telescopio Nazionale Galileo,50898
computational social choice,50898
C-arm system,50898
Molare,50898
Fulmarus glacialis,50898
missile,50898
U.N.,50898
yolk sac tumor,50898
principal coordinates analysis,50898
HT-8,50898
vinylene,50898
Horizontal Branch,50898
palisade layer,50898
clinical pharmacy,50898
dynamic range compression,50898
Hutt,50898
double-loop learning,50898
Air Pegasus,50898
Minsk,50898
Quindio,50898
Little finger,50898
5-deazaflavin,50898
bird cherry,50898
paleoclimatological,50898
cadmium-112,50898
dealer banks,50898
massively parallel computer,50898
canat,50898
Vila Nova de Cerveira,50898
Zeeman energy,50898
tracheitis,50898
Emacs,50898
pharmacological gene therapy,50898
sudden oak death,50898
Montipora aequituberculata,50898
Chongqing,50898
fixed channel allocation,50898
silver acetate,50898
acoustic phonon,50898
convex body,50898
co-occurrence matrices,50898
Renal replacement therapy,50898
E.V.,50898
BCL-2 inhibitor,50898
p-dichlorobenzene,50898
gene network,50898
fugue,50898
Boeblingen,50898
Blantyre District,50898
Sri Lankan government,50898
Higgsinos,50898
Cephalaspis,50898
mobile positioning,50898
"triiodothyronine, reverse",50898
L.f.,50898
stool culture,50898
adjoint action,50898
nodal precession,50898
usufruct,50898
Fe(CO)5,50898
geometric albedo,50898
individual ministerial responsibility,50898
CRAC,50898
Embeddedness,50898
Red hair,50898
Mira A,50898
divots,50898
Patient-controlled analgesia,50898
propositional dynamic logic,50898
BDS C,50898
Limbo,50898
Critical exponents,50898
Hajo Holborn,50898
Dayananda,50898
Genzyme Corporation,50898
Lipotyphla,50898
news ticker,50898
methylenecyclohexane,50898
Message Passing Interface (MPI),50898
JPY,50898
HDL Cholesterol,50898
Kegel exercise,50898
Landau damping,50898
dsb,50898
confluent hypergeometric function,50898
Eurogroup,50898
inflammatory myofibroblastic tumor,50898
radioopaque,50898
Walkman,50898
perceptual organisation,50898
Southern Fulmar,50898
Cooperative binding,50898
conrotatory,50898
maghemite,50898
Paolo Giordano,50898
Sagittal plane,50898
visible frequencies,50898
syndication,50898
Antarctic Petrel,50898
AAPC,50898
Shigella dysenteriae,50898
borderline tumor,50898
PRAI,50898
linearly independent,50898
universal soil loss equation,50898
Pergolide,50898
silent witness,50898
t-pA,50898
play therapy,50898
reflex time,50898
Hay coupling,50898
Risaralda,50898
calcium acetate,50898
Grodno,50898
oligonucleotide synthesis,50898
International Satellite Cloud Climatology Project,50898
lilac,50898
four-and-twenty,50898
Computer system,50898
Maidstone,50898
Maximum intensity projection,50898
Broglie,50898
community forest,50898
procainamide,50898
outflow boundary,50898
venous valves,50898
chromones,50898
Caribbean basin,50898
Contarinia,50898
pseudohallucination,50898
William Harvey,50898
vg,50898
Ochrotrichia,50898
Attachment disorder,50898
Abdominoplasty,50898
stroboscope,50898
Tethys Sea,50898
delta-like ligand 4,50898
cercle,50898
DB2,50898
tracheotomies,50898
Nuclear Magnetic Resonance Spectroscopy,50898
physiomics,50898
concentrator photovoltaics,50898
SCISEARCH,50898
sensory modality,50898
consonant cluster,50898
hydrolyzable tannin,50898
non-linear programming,50898
EpiData,50898
A* algorithm,50898
thelodont,50898
Eucharist,50898
preoperative care,50898
air pollutant concentrations,50898
text editor,50898
co-determination,50898
Decarboxylation,50898
Lobophyllia,50898
hemi-epiphyte,50898
Strouhal number,50898
Gavia adamsii,50898
astatine,50898
turbine blade,50898
P 10,50898
N. menagensis,50898
Loxodonta,50898
Z system,50898
glycosidically bound,50898
GM-1,50898
nursing diagnoses,50898
lysophosphatidylserine,50898
ethanolamide,50898
precision rate,50898
lexical entry,50898
dmax,50898
amenti,50898
AF2,50898
dorsal attention network,50898
Markov analysis,50898
The Human Body,50898
Oromia region,50898
privet,50898
Chimarra,50898
Thalassoica antarctica,50898
The cw,50898
agnathan,50898
respiratory stimulant,50898
Nozaki-Hiyama-Kishi reaction,50898
Shigemori,50898
Aroids,50898
dented,50898
Cross-covariance,50898
Stratified sampling,50898
Zoom,50898
Continuous variation,50898
universal cover,50898
Raffles,50898
Modern Age,50898
golden retrievers,50898
Maxwellian distribution,50898
Miwa,50898
moral economy,50898
perineometer,50898
Cauliflower,50898
acridine yellow,50898
therapeutic inertia,50898
common bench,50898
Phycodnaviridae,50898
Jean-Claude Trichet,50898
WM system,50898
Unpredictable,50898
Great Northern Diver,50898
RNA I,50898
Ergodicity,50898
acrocentric,50898
supramolecular catalysis,50898
"Bethesda, Maryland",50898
literary topos,50898
Photobacterium leiognathi,50898
D-glucose 6-phosphate,50898
Cape Petrel,50898
Manikin,50898
joint injection,50898
Forward Operating Base,50898
sertindole,50898
urea reduction ratio,50898
Brabantine,50898
GEQ,50898
adiabatic invariant,50898
category V,50898
crime scene reconstruction,50898
diglyme,50898
C-IV,50898
island growth,50898
Ecole des Hautes Etudes en Sciences Sociales,50898
exotic derivatives,50898
Korteweg-De Vries equation,50898
Cartesianism,50898
E31,50898
intertwining operator,50898
vagal nerve stimulation,50898
erosion prediction,50898
COL5A2,50898
Kronecker coefficient,50898
labeled data,50898
Australian Dollar,50898
PEComa,50898
Katana,50898
stochastic discount factor,50898
haloaromatic,50898
representation ring,50898
Dutch dictionaries,50898
testosterone ester,50898
Hounsfield,50898
Kordofan,50898
Heuristic evaluation,50898
indirect land-use change,50898
tracheomalacia,50898
tower karst,50898
adiponitrile,50898
northern Red Sea,50898
MNHN,50898
Standard Operating Procedures,50898
SYBR,50898
faujasite,50898
juggling pattern,50898
mechanical impedance,50898
specific yield,50898
ordered graph,50898
Ptolemy,50898
localized molecular orbitals,50898
deferred tax,50898
mesogloea,50898
giant keratoacanthoma,50898
Fizeau experiment,50898
periderm,50898
Butane,50898
Aphthitalite,50898
left-wing nationalist,50898
melibiose,50898
Cyclandelate,50898
International migration,50898
Social democracy,50898
indecomposable continuum,97917
trimethylsilyl azide,50898
laboratory animal science,50898
Caryopsis,50898
Psychohistory,50898
Wilms' Tumor,50898
asymmetric threats,50898
thiazolidine,50898
aminosteroid,50898
robust parameter design,50898
sociobiology,50898
Halocarbons,50898
Rice tungro spherical virus,50898
sorghum bicolor,50898
phonotactical,50898
Stemona,50898
phallic,50898
World Disarmament Conference,50898
complement receptor 2,50898
Pycnogonida,50898
Cognitive biases,50898
wait-free,50898
exercise-induced asthma,50898
Hg-3,50898
Convalescence,50898
secondary flow,50898
Sounder,50898
credibility theory,50898
Goal attainment scaling,50898
Performance Studies,50898
"45,X/46,XY mosaicism",50898
flux loop,50898
De Bilt,50898
Efalizumab,50898
Tenascin,50898
Incognito,50898
red bone marrow,50898
Histoplasma capsulatum,50898
Intergovernmental Oceanographic Commission,50898
Amylin,50898
airgun,50898
cinnamic aldehyde,50898
variable message sign,50898
Total knee arthroplasty,50898
Fotemustine,50898
Drug regulation,50898
Xylose,50898
national election studies,50898
semilattice,50898
Synalpheus,50898
hydroxyethylmethacrylate,50898
dmp,50898
Surface plasmon polaritons,50898
Human migration,50898
Koller,50898
Presbyopia,50898
CFGS,97973
Progressive familial intrahepatic cholestasis,50898
Ecto,50898
codeswitching,50898
code generator,50898
Dundee,50898
Mayo Clinic Proceedings,50898
Chlorpromazine,50898
hypothalamic-Pituitary-adrenal (HPA) axis,50898
Laplacian operator,50898
Adrenocorticotropic hormone,50898
solo family,50898
Attention Deficit Hyperactivity disorder (ADHD),50898
feudal Japan,50898
transmissible gastroenteritis coronavirus,50898
Prolog implementations,50898
Ebastine,50898
Presenilin 1,50898
petrologic,50898
serum sickness,50898
environmental isotopes,50898
digenetic,50898
Layer 2,50898
Agatti,50898
phosvitin,50898
talkers,50898
automatic gain control,50898
Mastocytosis,50898
Intercultural communication,50898
Medical school,50898
leptomeningeal carcinomatosis,50898
bearish,50898
SS-16,50898
Epimedium,50898
Fault tolerance,50898
patron saint,50898
keeping time,50898
interferon alpha-2B,50898
Orthogonal Polarization Spectral Imaging,50898
ETAG,50898
Medicinal chemists,50898
Tropical dry forests,50898
compressibility factor,50898
cementoblastoma,50898
termination reaction,50898
Toyama,50898
Initial Public Offering (IPO),50898
Parasitic infection,50898
bimolecular nucleophilic substitution,50898
ion-exchange membrane,50898
purple-throated fruitcrow,50898
encoding rules,50898
Sub-aerial,50898
Ullmann reaction,50898
Nimbus 7,50898
The bromeliad,50898
William III,50898
Prohormone,50898
materials management,98031
Fetal distress,50898
electronic data interchange,50898
Easterlin,50898
Koganei,50898
Small angle neutron scattering,50898
accessory soleus muscle,50898
Excite,50898
balanced incomplete block designs,50898
homoeopathic,50898
Lavandula,50898
Infectious disease,50898
WRN,50898
Homotopic,50898
molybdenum disulfide,50898
Diamagnetism,50898
stadiometer,50898
RIT1,50898
diethylaminosulfur trifluoride,50898
laminar organization,50898
Tension headaches,50898
somatostatinoma,50898
XPB,50898
group B streptococci,50898
Mobius strip,50898
acute nonlymphocytic leukemia,50898
Facioscapulohumeral muscular dystrophy,50898
Environmental health,50898
Functional gastrointestinal disorder,50898
Sinemet,50898
Nitrile,50898
hemangiopericytoma,50898
Basidiobolomycosis,50898
digestive disease,50898
Friendster,50898
dip-slip,50898
Anthranilate synthase,50898
X-linked congenital stationary night blindness,50898
Tiko,50898
aldose reductase inhibitor,50898
Social protection,50898
double-slit experiment,50898
CYGNUS X-3,50898
Biphenyl,50898
tangential speed,50898
supercritical carbon dioxide extraction,50898
International Team,50898
White Rabbit,50898
Mucoadhesion,50898
iobitridol,50898
Lacan,98961
Determinist,98082
n-sphere,50898
CICs,50898
Rath,50898
Carbenoid,50898
Science education,50898
monochromatic radiation,50898
office landscape,50898
consensus decision-making,50898
mutual coherence,50898
W(CO)6,50898
Ronkonkoma,50898
IRF3,50898
aphasiology,50898
Aztreonam,50898
chimeric antibodies,50898
Fock space,50898
dilazep,50898
lethal consequences,50898
ketyl,50898
laser performance,50898
ocular adnexal,50898
Undheim,50898
PHF,50898
oscula,50898
primary neurulation,50898
IS1,50898
polychrome,50898
ethyl alcohol,50898
BRK,50898
conifer forest,50898
vestibular bulbs,50898
A.B.,50898
esophageal reflux,50898
ethyl methanesulfonate,50898
Hexamethylbenzene,50898
Pnca,50898
Berg en Terblijt,50898
dHL,50898
MSNP,50898
Raclopride,50898
basidiobolomycosis,50898
stratum intermedium,50898
zero-crossing rate,50898
depurination,50898
Att,50898
Sysmex,50898
"1,2-propanediol",50898
Domperidone,50898
breast hyperplasia,50898
Determinant,50898
ribonuclease inhibitor,50898
INT$,50898
isocoumarins,50898
DNA origami,50898
XRCC4,50898
deletion mapping,50898
Zwarte Piet,50898
H. meleagridis,50898
BamH1,50898
Saintpaulia ionantha,50898
Amsterdam Criteria,50898
mung bean,50898
NSTS,50898
L-homoserine,50898
fluocinonide,50898
western red cedar,50898
nepheline,50898
invermectin,50898
cervical polyp,50898
mafosfamide,50898
sulfo group,50898
ORF 2,50898
intraabdominal infection,50898
ecdysteroids,50898
Elsamitrucin,50898
SRU,50898
betamethasone dipropionate,50898
drumlin,50898
indus,50898
transconductance,50898
barber-surgeons,50898
Schlumberger,50898
boundary testing,50898
BCBA,50898
SLeX,50898
DNA-DNA reassociation,50898
BOE,50898
beet armyworm,50898
baby food,50898
ms-1,50898
JMP,50898
Coraholmen,50898
ttcn,50898
Nikhef,50898
MSK,50898
Eleuthera,50898
Adventitious,50898
steady-state approximation,50898
cornucopian,50898
Oak Ridge,50898
FSTS,50898
quinacrine,50898
histomoniasis,50898
Tabernaemontana,50898
3D modelling software,50898
Bowel management,50898
HO-4,50898
active matrix,50898
temperature inversion,50898
MgBr2,50898
Zumaya,50898
M26,50898
beamwidth,50898
PHCCC,50898
m-cresol,50898
CONSTANS,50898
eardrum,50898
Antazoline,50898
MacLab,50898
cleat,50898
antichain,50898
true hermaphroditism,50898
experimental rock,50898
5-HT1D,50898
canavanine,50898
Neuromas,50898
conversion electron,50898
phytate,50898
NTL,50898
forearm fracture,50898
Yucca,50898
Gangliosides,50898
sympathomimetics,50898
proper distance,50898
"3,4-diaminopyridine",50898
Entner-Doudoroff pathway,50898
carboxy terminal domain,50898
zinc acetate,50898
relative viscosity,50898
Monoclinic,50898
plant senescence,50898
hypothalamohypophysial,50898
Amoeba distributed operating system,50898
galactorrhoea,50898
6-benzylaminopurine,50898
precise point positioning,50898
hexobendine,50898
ino,50898
SS-8,50898
hypervascularity,50898
Dysmenorrhoea,50898
UFV,50898
azinphos-ethyl,50898
nitrogen laser,50898
White-bellied sea-eagle,50898
London-Brabant Massif,50898
direct introduction,50898
robot-assisted surgery,50898
XLF,50898
Sintering,50898
Times Beach,50898
Nogi,50898
photolithographic,50898
ethoxyquin,50898
mycophagous,50898
Golfe du Lion,50898
multivoltine,50898
brain lateralization,50898
RPG,50898
M29,50898
Heart Rhythm Society,50898
combretastatin,50898
isocoumarin,50898
mammillary body,50898
WKy,50898
hemeralopia,50898
Halobacterium,50898
Blitzkrieg,50898
guard cell,50898
itba,50898
hypercorrected,50898
Codman triangle,50898
pacsin2,50898
Seven HD,50898
Arthrobacter,50898
radio acoustic sounding system,50898
urethrae,50898
lignosulphonate,50898
cellular pathology,50898
mini-system,50898
ionic crystal,50898
Intramolecular vibrational energy redistribution,50898
auto-catalytic,50898
crystal system,50898
southeastern Brazilian,50898
suboesophageal ganglion,50898
Decima,50898
E64,50898
indanidine,50898
Heavy mineral,50898
torsion group,50898
Health technology assessment,50898
glycosidic linkage,50898
NPN,50898
unbonded,50898
Gasification,50898
Jamides celeno,50898
Pu-244,50898
methacrolein,50898
step response,50898
metacercariae,50898
irs1,50898
medullary cord,50898
octyl glucoside,50898
popery,50898
thyroid homeostasis,50898
Phox2B,50898
lateral rectus muscle,50898
metz,50898
TBHQ,50898
3-Methylhistidine,50898
CYP4A11,50898
EQ-5d,50898
PGE1,50898
schistose,50898
paracaspase,50898
leakage current,50898
nepticulid,50898
Lessepsian migrant,50898
C-fibre,50898
hypergammaglobulinaemia,50898
imprinting control region,50898
Fabry-Perot etalon,50898
environmental space,50898
Nappe,50898
arkosic,50898
LS coupling,50898
pseudostratified columnar epithelium,50898
Imodium,50898
Andean orogeny,50898
HLA-DR53,50898
horseradish,50898
AMB group,50898
cervids,50898
BTF2,50898
halons,50898
SMTs,50898
topographic elevation,50898
bright field microscopy,50898
cool air,50898
roulette,50898
NCTP,50898
poly (A),50898
Buller,50898
BKM120,50898
coal rank,50898
Sb2O3,50898
obex,50898
multiple personality disorder,50898
kalmia,50898
IC3,50898
magnesioferrite,50898
periosteal reaction,50898
R-Ras,50898
lysC,50898
Bolk,50898
triethylene glycol,50898
grazing incidence diffraction,50898
solubility product,50898
coumadin,50898
Nembutal,50898
web 2.0,50898
polycystic ovarian disease,50898
protein kinase A (Pka),50898
type D personality,50898
Brachyury,50898
glacier mass balance,50898
Hf1,50898
Gothian Orogeny,50898
secondary source,50898
curie,50898
cadaverine,50898
promazine,50898
kaolinitic clay,50898
Dormicum,50898
ribozyme,50898
poikilitic,50898
suids,50898
ConOps,50898
Walcheren,50898
lamina terminalis,50898
fast path,50898
rowi,50898
Northwestern University,50898
Physicalism,50898
Thermus aquaticus,50898
benzoxazole,50898
Serositis,50898
Japanese sparrowhawk,50898
20-hydroxyecdysone,50898
tonsillectomies,50898
ipsapirone,50898
SD18,50898
sanger sequencing,50898
hemolin,50898
ocular albinism,50898
Nye,50898
Ringer solution,50898
phenylpropanoid biosynthesis,50898
glacial tills,50898
Rokitansky-Aschoff sinuses,50898
Empiricism,50898
PCOD,50898
bacteriophage lambda,50898
block diagram,50898
diathermy,50898
medical algorithm,50898
Fordia,50898
dichlorofluorescein,50898
Pregnanediol,50898
Arianta arbustorum,50898
enal,50898
radiation enteropathy,50898
Apple juice,50898
rhenium-188,50898
Klov,50898
hypolimnetic,50898
kymograph,50898
cuprite,50898
skew-Hermitian,50898
ENCI,50898
glomerular podocytes,50898
tizanidine,50898
United States Pharmacopeia,50898
Pels Rijcken,50898
Salares,50898
molybdopterin,50898
retrogradation,50898
HMPAO,50898
Immunoscreening,50898
14K,50898
Wheatstone,50898
Pleurodeles waltl,50898
Flosta,50898
foodservice,50898
centrosymmetric molecules,50898
chloritoid,50898
FABP3,50898
Luteal support,50898
SN2 substitution,50898
Dalarna,50898
MauM,50898
fae,50898
Alopecia,50898
E2C,50898
pretectal area,50898
chlorotrimethylsilane,50898
Nieuwkoop,50898
Anoplolepis gracilipes,50898
Rothwell,50898
fluorescence-microscopy,50898
Menou,50898
withdrawal bleeding,50898
CHNC,50898
Absidia,50898
congenital nephrotic syndrome,50898
LC3-I,50898
SD10,50898
variegation,50898
Chinese sparrowhawk,50898
double minute chromosomes,50898
Arctic Alaska,50898
isobutyraldehyde,50898
The reflections,50898
COSO,50898
pancarditis,50898
PAAS,50898
time offset,50898
gamma-endorphin,50898
silver chromate,50898
Cerebral angiography,50898
Verbascum,50898
SwissProt,50898
amplification efficiency,50898
volcanicity,50898
product 19,50898
SD7,50898
interventricular foramen,50898
Generalizability theory,50898
Tristan da Cunha,50898
HDPE,50898
lipoate,50898
tenorite,50898
national journal,50898
respiratory paralysis,50898
clear-cell carcinoma,50898
liquid handling robot,50898
meningocele,50898
y-coordinate,50898
fecal pellet,50898
Group therapy,50898
precancerous condition,50898
Amsacrine,50898
Ru(CO)5,50898
T. divaricata,50898
Antinuclear antibodies,50898
AraLAM,50898
polyestrous,50898
benzol,50898
chromatic dispersion,50898
cephalexin,50898
Glucosamine,50898
Pernicious anemia,50898
Christensenella,50898
A390,50898
vastus intermedius,50898
otologic,50898
cplex,50898
Sirte Basin,50898
intratubular germ cell neoplasia,50898
Conifer forest,50898
persistent radical,50898
Helix lucorum,50898
Aconitum,50898
Kaitai Shinsho,50898
neural cell adhesion molecules,50898
separation energy,50898
Oriental honey-buzzard,50898
UOL,50898
MauN,50898
methyl green,50898
Oncovin,50898
Mora,50898
Exxon,50898
Aboriginal Australians,50898
Plasma protein binding,50898
fragmented habitat,50898
Argo,50898
temperature sense,50898
C3H6O,50898
False Positive,50898
Cytoplasmic streaming,50898
ASF/SF2,50898
multiple exposure,50898
Acute disseminated encephalomyelitis,50898
Aconitum carmichaelii,50898
ring dike,50898
HMBS gene,50898
metasediment,50898
mass spectrometric detector,50898
New Zealand Maori,50898
red alga,50898
Brucellosis,50898
KINAL,50898
Proband,50898
splanchnic nerve,50898
PaX,50898
tachydysrhythmias,50898
Vail,50898
Antimycin A,50898
ESET,50898
BYK,50898
diazepine,50898
farside,50898
2-aminotetralin,50898
heterogeneous nuclear ribonucleoprotein A1,50898
processus vaginalis,50898
myeloma proteins,50898
RBP2,50898
Achatina fulica,50898
bicycle helmet,50898
small isles,50898
adenosylcobalamin,50898
transgenerational epigenetic inheritance,50898
The DISH,50898
SLC9A3,50898
Cartesian product,50898
Weddell Sea,50898
B.G.,50898
uria,50898
vectorcardiography,50898
Sarin,50898
Toluidine,50898
annual percentage rate,50898
zincite,50898
aspartylglucosaminidase,50898
phago,50898
Thermostability,50898
Old Rhine,50898
intraosseously,50898
Bifidobacteriaceae,50898
polypropene,50898
system I,50898
agamous,50898
tropical dry forest,50898
fish stock,50898
Mary II,50898
Anthropos,50898
field recording,50898
Berberidaceae,50898
phalanx,50898
1988 Olympic Winter Games,50898
Henricus,50898
Suswa,50898
Stochastic dominance,50898
photofrin,50898
Slc4a2,50898
Mepyramine,50898
swing time,50898
accessory sex glands,50898
Cape Verde Archipelago,50898
Tauber,50898
Pentastemona,50898
urethral meatus,50898
Crithmum maritimum,50898
d-limonene,50898
"1,3-dibromopropane",50898
X-1A,50898
delta receptors,50898
anechoic,50898
Democratic Peace Theory,50898
Staphylococcus intermedius,50898
deep circumflex iliac artery,50898
5-HT7 receptors,50898
golf ball,50898
carbenoid,50898
lattice-ordered group,50898
B share,50898
beet western yellows virus,50898
phenoxyethanol,50898
spectral characterisation,50898
order-preserving function,50898
Wittig rearrangement,50898
body-centered tetragonal,50898
nadroparin calcium,50898
electromagnetic surface waves,50898
locum,50898
logistic growth model,50898
phallus,50898
The dilemma,50898
Columbia Suicide Severity Rating Scale,50898
Der Struwwelpeter,50898
Munnich,50898
exponentially stable,50898
bromochlorodifluoromethane,50898
topological semigroup,50898
enhanced definition,50898
Terebratulida,50898
whistleblower,50898
oxygen-16,50898
Lugar,50898
Ganglion,50898
C3 plants,50898
leitmotiv,50898
pick-and-roll,50898
ras protein,50898
circle map,50898
Saint Nicholas,50898
test-and-set,50898
oriental fire-bellied toad,50898
convective acceleration,50898
GNIP,50898
acrosin,50898
ethyl bromoacetate,50898
high cross,50898
Contingency table,50898
common hogweed,50898
2-vinylpyridine,50898
MgATPase,50898
LaTeX,50898
Social Learning Theory,50898
great reduction,50898
labour rights,50898
Latakia,50898
Nereidae,50898
V.4,50898
oscillopsia,50898
neutral detergent fiber,50898
pseudo-canonical,50898
polysiloxane,50898
Krypton-81,50898
congenital pulmonary airway malformation,50898
Attractiveness,50898
fibrous protein,50898
Clinical Psychology Review,50898
sodium vapor,50898
translation studies,50898
Stock option,50898
shipyard,50898
N-person,50898
ab3,50898
Input-output analysis,50898
principal series representation,50898
chronic cerebrospinal venous insufficiency,50898
type-1 diabetes,50898
DTLs,50898
functional decomposition,50898
chronic eczema,50898
Trigonometric integral,50898
anthrone,50898
H3BO3,50898
betamethasone valerate,50898
OF-1,50898
precision time protocol,50898
Multithreaded,50898
rational reconstruction,50898
Telematics,50898
Nominal Group Technique,50898
Achatina achatina,50898
sticky prices,50898
Michael Porter,50898
PAMs,50898
blue rose,50898
therapeutic radiation,50898
lenticulostriate,50898
acanthocytosis,50898
Chromomycin A3,50898
Azalea indica,50898
scanning multichannel microwave radiometer,50898
time cycles,50898
electrical element,50898
In Vitro Fertilisation,50898
Roland Barthes,98961
Querula,50898
contingency model,50898
Intel iPSC,50898
Lubumbashi,50898
land registration,50898
4-ethylphenol,50898
Global Climate Observing System,50898
Mucor racemosus,50898
Eo.,50898
Glaucophane,50898
salt I,50898
plena,50898
tifluadom,50898
subperiosteal,50898
The transplants,50898
Hyperoxaluria,50898
PDSS2,50898
LP-44,50898
cineole,50898
International Olympic Committee,50898
IFNAR2,50898
RTL group,50898
Tacrine,50898
magenta,50898
Seram,50898
MACC,50898
GCOS,50898
conus medullaris,50898
PI31,50898
Cbl-b,50898
Sporades Islands,50898
ZQ,50898
OPPh3,50898
Ependymal cells,50898
Tissue plasminogen activator,50898
Nerve Growth Factor,50898
Naltrindole,50898
Membrane fluidity,50898
Secretogranin II,50898
19-nortestosterone,50898
IL9,50898
tectono,50898
Interneuron,50898
lodgement,50898
Gabbro,50898
S-Phase,50898
Ls8,50898
Umbilical cord,50898
haptocorrin,50898
ring I,50898
Lopolith,50898
hypothalamic-pituitary axis,50898
Spotted wood owl,50898
Personality disorder,50898
Keratins,50898
oxotremorine,50898
butylene,50898
liver sinusoid,50898
Strix seloputo,50898
Indocyanine Green,50898
mustard gas,50898
Conus striatus,50898
Central nervous system disease,50898
dermatopathic lymphadenopathy,50898
local convergence,50898
rapakivi granite,50898
anorthositic,50898
porphobilinogen,50898
N-acetylmannosamine,50898
Cell junction,50898
anorogenic magmatism,50898
FIP1L1,50898
transit peptide,50898
hemianopsia,50898
Arendal,50898
measles vaccine,50898
cerebral ventricles,50898
organomercury,50898
Self-reflection,50898
URE,50898
corpora amylacea,50898
Protein sequencing,50898
Dietz,50898
fiamme,50898
phrygana,50898
CHD5,50898
Functional testing,50898
Sangiran,50898
inflammability,50898
Normaal,50898
large neutral amino acid transporter,50898
acrosomes,50898
CCOS,50898
patient portal,50898
Ramipril,50898
excrescent,50898
Nerolidol,50898
Watson-Crick base pair,50898
coulometry,50898
Sakai,50898
Medfield,50898
Megachilidae,50898
AICC,50898
Co2(CO)8,50898
mephenytoin,50898
multiple endocrine neoplasia syndrome,50898
Ultramafic,50898
hydroxymethylbilane synthase,50898
WEHI,50898
Il-4,50898
Yucatan peninsula,50898
Tricine,50898
microphallus,50898
Circadian rhythm sleep disorders,50898
Sch 23390,50898
theca externa,50898
Philipp Franz von Siebold,50898
suspensory ligaments,50898
Arp2/3,50898
Nassarius reticulatus,50898
electromobility,50898
Yohimbine,50898
N.A.P,50898
Letcher,50898
Japanese culture,50898
Myofibril,50898
Viviparus viviparus,50898
IFITM1,50898
Anthophoridae,50898
clinopyroxenite,50898
sigma receptor,50898
Drobak,50898
constitutive heterochromatin,50898
constant species,50898
Lymphocytosis,50898
m3 muscarinic receptor,50898
agonist-antagonist,50898
CDP-choline,50898
hornblendite,50898
differential staining,50898
methyl vinyl ether,50898
Myh7,50898
Busch,50898
Stereoisomer,50898
Mercenaria mercenaria,50898
British Library,50898
Andrenidae,50898
Mulago Hospital,50898
conopeptides,50898
Mexican hat potential,50898
Pediococcus,50898
benzomorphan,50898
class I MHC,50898
Dawson,50898
Pyroglyphidae,50898
Level I Trauma Center,50898
hexanedinitrile,50898
vomer,50898
cryptand,50898
scattering objects,50898
thiocarbamate,50898
adrenocortical adenomas,50898
spectral estimation,50898
TT1,50898
Eustachian tube dysfunction,50898
Jet Ventilation,50898
PBX1,50898
Ken Livingstone,50898
sea snail,50898
l-group,50898
Functional Equations,50898
streptolysin,50898
Erythritol,50898
innovation diffusion,50898
medial plantar artery,50898
Halon,50898
Nahuel Huapi,50898
omphalitis,50898
maceral,50898
Brachiopoda,50898
Carfilzomib,50898
S&P 100,50898
interacting boson approximation,50898
Isotopes,50898
bromisoval,50898
expansion ratio,50898
Multiple System Atrophy (MSA),50898
closed community,50898
Slag,50898
constraint solving,50898
minC,50898
Comenius,50898
Aarschot,50898
double integration,50898
Resh,50898
nucleoside transport proteins,50898
iterated logarithm,50898
Maximin,50898
Titchener,50898
CFPR,50898
social overhead capital,50898
implanted pacemaker,50898
Beta cells,50898
Endogeneity,50898
PB equation,50898
translational frameshift,50898
sialoglycoprotein,50898
bulk Richardson number,50898
Marquis de Sade,50898
auramine O,50898
non-tariff barriers,50898
pedelec,50898
feeder cell,50898
Swahili,50898
spectral envelope,50898
radom,50898
IG Metall,50898
golden hamster,50898
Spinach,50898
moment curve,50898
translation theory,50898
lumbrical muscles,50898
Pinner,50898
Hypogastrura,50898
SGML,50898
horopter,50898
scientific model,50898
Boron trifluoride,50898
Q-1,50898
step signal,50898
R21,50898
absolute retract,50898
urography,50898
tissue antigens,50898
pharmaceutical chemistry,50898
chromosome 4q35,50898
towing tank,50898
grand partition function,50898
incomplete nature,50898
Obando,50898
Phytochelatin,50898
F(ab')2 fragment,50898
Supracrustal,50898
Norbert Wiener,50898
Superstorm Sandy,50898
nonnegative matrix,50898
algebraic expression,50898
StaPhylococcus epidermidis,50898
paradisiac,50898
"carcinoma, non-small-cell lung",50898
oral ulcer,50898
Kepler problem,50898
KABI,50898
JACS,50898
Uganda Red Cross Society,50898
studium,98961
pink-orange,50898
psychogenesis,50898
Houthem,50898
oculoplastic,50898
drumlins,50898
phyric,50898
Ranales,50898
hexamethylbenzene,50898
wide angle X-ray scattering,50898
transarterial chemoembolization,50898
Green House Gas,50898
Box-Jenkins,50898
sorbinil,50898
Shigella boydii,50898
beta-emitting,50898
T-12,50898
cross-flow filtration,50898
Premeditation,50898
AKAP12,50898
N-acetylneuraminate,50898
Boston Spa,50898
Hepatosplenomegaly,50898
methylmalonyl-CoA epimerase,50898
isograd,50898
Syrphidae,50898
Coulometry,50898
Musgrave,50898
Wetherby,50898
Rhesus factor,50898
peridot,50898
subesophageal ganglion,50898
petroleum play,50898
dynorphins,50898
Environmental Protection Agency (EPA),50898
PtdIns(3)P,50898
lipofection,50898
Distributed Multipole Analysis,50898
eunuch,50898
northern Red Sea region,50898
NSV,50898
nekton,50898
parenchyme,50898
diabetic gastroparesis,50898
PvO,50898
melanoidin,50898
"PtdIns(3,4)P2",50898
inhibitory postsynaptic potential,50898
high river,50898
anat,50898
twin peaks,50898
Tangkuban Perahu,50898
mixed-valence compound,50898
Sriram,50898
nitroarginine,50898
chromogranins,50898
fine needle aspiration biopsy,50898
egg albumen,50898
parsnip,50898
dinger,50898
4-aminobiphenyl,50898
Municipal Solid Waste,50898
ten 1,50898
Basidiobolus,50898
Patterson function,50898
Crangonyx,50898
Port Royal,50898
granulomata,50898
Basalt,50898
I divide,50898
DC-coupled,50898
Galilee,50898
mxn,50898
Masaka,50898
Chionodraco hamatus,50898
Parc National du Mercantour,50898
Euclidean plane,50898
Heterohelicidae,50898
Alto Minho,50898
identity mapping,50898
pietistic,50898
FORTRAN,50898
diethyl phosphite,50898
Fast Local Internet Protocol,50898
Hematoporphyrin,50898
regular astigmatism,50898
tokamak,50898
inframammary crease,50898
invariant manifold,50898
borneol,50898
Guadiana,50898
dactyli,50898
Umbilical artery,50898
BAB.,50898
static stretching,50898
linear stage,50898
solitary confinement,50898
microcalorimeter,50898
lagenaria,50898
Shigella sonnei,50898
Forward scatter,50898
Noordwijk aan Zee,50898
polyethene,50898
amortized,50898
deblocking,50898
Kx,50898
post-glacial rebound,50898
acebutolol,50898
liberal education,50898
Uppermost,50898
frequency modulated,50898
spinal muscular atrophies,50898
Binh Thuan,50898
remand prison,50898
economic discrimination,50898
Debrecen,50898
universal construction,50898
pneumostome,50898
replica plating,50898
bilingual dictionary,50898
Methylamine,50898
physicalist,50898
telematics,50898
cephalon,50898
microbial consortium,50898
Dyle River,50898
emmer wheat,50898
WCCo,50898
critical thermal maximum,50898
Mental workload,50898
real wage,50898
TT2,50898
organization development,50898
Federmesser,50898
phosphorus trichloride,50898
After sex,50898
Abbott Labs,50898
Jacques Lacan,98961
exposed point,50898
allergic contact stomatitis,50898
Spitzer Space Telescope (SST),50898
Nagasaki,50898
The Gambler,50898
Chironomus anthracinus,50898
electric motor,50898
ergothioneine,50898
natural gas liquids,50898
physical experiment,50898
Gloria,50898
RNAase,50898
Schur convexity,50898
Leap Motion,50898
photoelastic modulator,50898
chloroethane,50898
secure computation,50898
gastric chief cells,50898
kindred group,50898
Lembang,50898
contact metamorphism,50898
Nauru,50898
Cook Islands,50898
N-Methyl-D-Aspartate,50898
habenular nuclei,50898
Megachilids,50898
sugar-sweetened drinks,50898
cellular replication,50898
teratocarcinoma,50898
5-HT1 receptor,50898
Niue,50898
Coronary sinus,50898
American Samoa,50898
oak moss,50898
spectrum analyzer,50898
non-protein nitrogen,50898
ten high,50898
reincarnation,50898
Sirte,50898
dorsal arteries,50898
HCo(CO)4,50898
astronomical spectroscopy,50898
Trafalgar Square,50898
Gymnoscopelus,50898
Hippocratic,50898
tl,50898
Jive,50898
membrane theory,50898
Phoenicircus,50898
Alhazen,50898
graphic tablet,50898
Depressaria pastinacella,50898
Sodium diethyldithiocarbamate,50898
Diisopropyl fluorophosphate,50898
external urethral orifice,50898
Common Fund,50898
C-KIT,50898
Minho River,50898
total oil,50898
bupranolol,50898
osmotic concentration,50898
Aerosil,50898
Rhesus monkeys,50898
Hermeneutics,50898
isotactic,50898
Liljeborgiidae,50898
adrenocorticotrophin,50898
Corophium curvispinum,50898
context-free language,50898
tetrabutylammonium hexafluorophosphate,50898
Sottunga,50898
pure play,50898
esterified estrogen,50898
tetraethylammonium bromide,50898
characteristic unit,50898
left hepatic duct,50898
Tertiary referral hospital,50898
enantiomorph,50898
extrinsic allergic alveolitis,50898
Triticum dicoccum,50898
enhanced oil recovery,50898
complementary DNA.,50898
Transliminality,50898
quotient group,50898
docosahexaenoic acids,50898
Amantadine,50898
hippus,50898
iliac branches,50898
Counter-Reformation,50898
sucrose gradient centrifugation,50898
Turtmanntal,50898
exponential hierarchy,50898
difluoromethane,50898
obviation,50898
3-O-methyldopa,50898
speed skater,50898
obverse,50898
nucleus raphe magnus,50898
ribulose bisphosphate,50898
25-hydroxy Vitamin D,50898
adipose cells,50898
Backscatter,50898
Cervical pessary,50898
Delta Omega,50898
Zinc deficiency,50898
Weedon,50898
constantan,50898
pseudohermaphrodites,50898
Zygomycetes,50898
Slotermeer,50898
systoles,50898
neurolysis,50898
peracid,50898
Cyclamen persicum,50898
Pick matrix,50898
perfect mirror,50898
traditional Chinese medicinal,50898
call stack,50898
difluoride,50898
O6-Ethylguanine,50898
ORF 1,50898
interacting boson model,50898
perakine,50898
rapid eye movement sleep behavior disorder,50898
europid,50898
SCarlet RoAD,50898
Adang,50898
pioneer plant,50898
contact paper,50898
phospholipid flippases,50898
NIH-3T3 fibroblasts,50898
cross-stratification,50898
ultramafic rock,50898
Glochidion,50898
Pacsin2,50898
Granston,50898
Isixhosa,50898
methyl sulfate,50898
D'Entrecasteaux Islands,50898
Bacterial overgrowth,50898
The contractions,50898
mammillary bodies,50898
beta-D-glucose,50898
forced swimming test,50898
Woodlark,50898
spreading ridge,50898
purple nonsulfur bacteria,50898
zonules,50898
job scheduler,50898
Proteomonas,50898
iliolumbar,50898
Tunen,50898
Negev,50898
oblate shape,50898
submediterranean,50898
mycophagy,50898
delayed reaction,50898
Wister,50898
amniocyte,50898
anistreplase,50898
Stone-Cech compactification,50898
Chronic gastritis,50898
Venturicidin,50898
alpha-humulene,50898
Belgian Dutch,50898
Mendelian rules,50898
Lorraine,50898
Albuterol,50898
raucaffrinoline,50898
Vinca alkaloids,50898
virtual address space,50898
Pergonal,50898
positive money,50898
Optima,50898
porcine zona pellucida,50898
ZnBr2,50898
consensus decision making,50898
serpent-eagle,50898
Peyerimhoff,50898
furocoumarin,50898
revisionism,50898
Qin,50898
dead ice,50898
eclecticism,50898
plasma spraying,50898
Grenvillian,50898
"GARCH(1,1)",50898
Methylobacterium extorquens,50898
estrus,50898
Trematomus,50898
Iobitridol,50898
ripple marks,50898
Dieffenbachia,50898
Necker cube,50898
Halocarbon,50898
Hallucination,50898
monophthong,50898
Leptinotarsa decemlineata,50898
National MS Society,50898
chromel,50898
cyclandelate,50898
haemoprotein,50898
injecting drug user,50898
solenoidal,50898
ATF5,50898
micro-fabrication techniques,50898
multiple sleep latency test,50898
Mzimba,50898
Luxol Fast Blue,50898
New mutants,50898
Apriori,50898
alkyl phosphate,50898
chromium-51,50898
neuropore,50898
Polyurethane,50898
plinth,50898
homogeneously staining region,50898
hand plane,50898
pollinator partnership,50898
optical molasses,50898
long prime,50898
exhibitionism,50898
flow sheet,50898
photo interpretation,50898
TWAs,50898
neurosis,50898
true pelvis,50898
student transport,50898
cycle route,50898
L20,50898
C-complex,50898
cryofixation,50898
Indo-West Pacific,50898
Nicotiana sylvestris,50898
PUVA keratosis,50898
Cotinga,50898
mimic 2,50898
Von Bezold,50898
H infinity,50898
Voorhout,50898
critical process parameters,50898
Douglas fir (Pseudotsuga menziesii),50898
oligodeoxyribonucleotides,50898
heat-shock genes,50898
power amplifier,50898
impairment charge,50898
platypnea,50898
ethical altruism,50898
interrupter,50898
employee stock option,50898
N-methylaniline,50898
norgestrel,50898
implicit solvation,50898
Eling,50898
nonapeptide,50898
organic molecule,50898
perfect complements,50898
mud cracks,50898
Baire set,50898
Osprey,50898
cordon sanitaire,50898
adrenergics,50898
Aponeuroses,50898
31/6,50898
rab23,50898
lock-in amplifier,50898
L28,50898
fecal loading,50898
matrix multiplication,50898
polycystic kidneys,50898
Medication management,50898
MLRs,50898
Lord Cecil,50898
piriform aperture,50898
Bio2RDF,50898
unimodality,50898
hairy root culture,50898
defunctionalization,50898
N-methylamide,50898
Iraq War,50898
traditional Chinese herbal medicine,50898
"Nancy, France",50898
Singular Value Decomposition,50898
alloxan,50898
aphthitalite,50898
hydrazine hydrate,50898
exogamy,50898
Thiourea,50898
The consultants,50898
meningismus,50898
EDMA,50898
ciliary arteries,50898
McNulty,50898
risk arbitrage,50898
calcarenite,50898
Logit transformation,50898
hip-joint,50898
achene,50898
preprocessor,50898
Dipalmitoylphosphatidylcholine,50898
Greek Orthodox,50898
CALR,50898
Nevado de Colima,50898
sanguinarine,50898
NCAT,50898
A/D converter,50898
Counterion,50898
reef islands,50898
master control,50898
anatomical plane,50898
nemawashi,50898
T-x,50898
Parnassia,50898
Phenylacetaldehyde,50898
gwk,50898
Ventricular pressure,50898
polybutylene,50898
lung abscess,50898
chlorotoluene,50898
arsenic trichloride,50898
Espoo,50898
U3O8,50898
penetration length,50898
nanoribbon,50898
Omegaven,50898
NH4HCO3,50898
petrologic type,50898
mgr,50898
tetramethylsilane,50898
Yarrell,50898
osmoconformer,50898
optical force,50898
Neobisium,50898
hedgehog signaling pathway,50898
Heinrich-Heine University,50898
seed disperser,50898
active oxygen species,50898
autoclaving,50898
lithostratigraphically,50898
trimethylsilyl chloride,50898
Plan-Do-Check-Act,50898
farnesyl,50898
Liddell Hart,50898
Rothenberg,50898
Heteropogon,50898
Guillardia theta,50898
stadholder,50898
lateral plantar artery,50898
Ginzburg-Landau theory,50898
Finite Impulse Response,50898
Sicily Channel,50898
courtship display,50898
otological,50898
tetrabutylammonium hydroxide,50898
TIN,50898
Learning disabilities,50898
high hand,50898
Grote,50898
bopyrid,50898
Federmesser culture,50898
Warta,50898
Kajaani,50898
clogP,50898
Dracaena fragrans,50898
kinetic concepts,50898
doptone,50898
suspended solid,50898
keratoacanthoma,50898
Hydrogen Peroxide,50898
metacognitive therapy,50898
The tablet,50898
Ommaya reservoir,50898
longissimus thoracis,50898
Stxbp5,50898
bipolar signal,50898
sphenoparietal sinus,50898
kaizen,50898
island endemic,50898
parieto-occipital sulcus,50898
dillapiole,50898
Halstead,50898
cold chain,50898
MC68020,50898
EC 1.8.1.4,50898
Konings,50898
Archer,50898
cycle 5,50898
Whittingham,50898
wolves,50898
3 gauge,50898
bitwise,50898
Nidelva,50898
polyglutamine disease,50898
spinal tumor,50898
hyperkeratoses,50898
WHO Collaborating Center,50898
corrected calcium,50898
The dummy,50898
Navelbine,50898
Sotho,50898
Warrington,50898
Grad,50898
The CARS,50898
Teapot Dome,50898
The Standard,50898
Bone conduction,50898
5-HT1E,50898
Parkinsonian tremor,50898
fast twitch muscle,50898
carrying amount,50898
P120,50898
No depression,50898
Al(OH)3,50898
torsion-free,50898
ideal point,50898
Hippus,50898
GNE,50898
Chlorthalidone,50898
metrizamide,50898
The substitute,50898
isochromosomes,50898
dentatorubral-pallidoluysian atrophy,50898
superficial deposits,50898
Tryon,50898
Q8,50898
hydrophilic-lipophilic balance,50898
Rectus femoris,50898
Cordilleran,50898
1990 World Championships,50898
superficial middle cerebral vein,50898
plane group,50898
quinidine sulfate,50898
Euphorbia pulcherrima,50898
dyschromatopsia,50898
cerebral vascular accident,50898
Duesseldorf,50898
cultural universals,50898
HERACLES,50898
Jacques Derrida,50898
"1,2-Dichlorobenzene",50898
MD 150,50898
Pietas,50898
lexical syntax,50898
Quartzite,50898
Mortierella,50898
Goering,50898
Trachops,50898
phenomic,50898
venturicidin,50898
DC component,50898
Macintosh LC II,50898
Axis I disorder,50898
Rectal administration,50898
Brent,50898
centimorgan,50898
Health Extension Program,50898
Penicillins,50898
extractable nuclear antigens,50898
alpha-D-mannosidase,50898
No speech,50898
endocentric,50898
Type II Diabetes,50898
Levantine Basin,50898
ill-conditioned,50898
Indonesian Archipelago,50898
Fe-13,50898
motivational intensity,50898
Leukotriene C4,50898
Hancock,50898
cdk4,50898
trade facilitation,50898
3D SSS,50898
Winston Churchill,50898
Half lives,50898
organic brain syndrome,50898
sample return mission,50898
Long Island,50898
triangular decomposition,50898
Lithologically,50898
seasonal breeder,50898
buccal administration,50898
Haliastur,50898
FSII,50898
tethered balloon,50898
Shangaan,50898
cranial suture,50898
hindcast,50898
Inverse PCR,50898
multifidus muscle,50898
PMOs,50898
rickettsiosis,50898
60 cycles,50898
The final experiment,50898
sector instrument,50898
retinal correspondence,50898
The wrench,50898
Artificial Life,50898
incontact,50898
telerehabilitation,50898
cupric sulfate,50898
frequency domain response,50898
gastro-,50898
bilberry,50898
Phenylephrine,50898
coccyx,50898
Oak Ridge National Laboratory,50898
Prospekt,50898
dihydrolipoyl transacetylase,50898
flux quantum,50898
quasi-maximum likelihood,50898
azinphos-methyl,50898
pharmaceutical drug,50898
dissymmetry,50898
HO-6,50898
Calbindin,50898
gradient-index lens,50898
sneakers,50898
reduction mammaplasty,50898
Autoimmune hypophysitis,50898
abusive head trauma,50898
Protogeometric,50898
binary collision,50898
Peanut allergy,50898
Familial dysbetalipoproteinemia,50898
praeteritio,99623
Short-chain acyl-CoA dehydrogenase deficiency,50898
Syndicated,50898
alpha-proteobacteria,50898
Slow-wave sleep,50898
Paranasal sinus,50898
Angiostrongylus,50898
Sea Islands,50898
von Neumann machines,50898
Gq/11,50898
coalgebra,50898
costly signaling,99634
Hemophagocytic lymphohistiocytosis,50898
market transparency,50898
disaster studies,50898
Marilyn Strathern,50898
Cultural identity,50898
Ornithine decarboxylase,50898
Mucopolysaccharidosis Type I,50898
Madibeng,50898
quasi-identifier,50898
Terpene,50898
Life cycle assessment,50898
Henry Savile,50898
Mumford,50898
Invasive species,50898
Information systems,50898
Zeolite,50898
Halomonas,50898
Triple arthrodesis,50898
figurational sociology,50898
Alma Ata Declaration,50898
pars flaccida,50898
Regulatory capital,50898
Allergic asthma,50898
religious text,50898
Twin anemia-polycythemia sequence,50898
Breviary,50898
lacunar stroke,50898
logical depth,50898
financial audit,50898
peritubular capillary,50898
Cloud Computing,50898
blush response,50898
criminal nature,50898
Exposure therapy,50898
Diacylglycerol lipase,50898
agenda setting theory,50898
epratuzumab,50898
silent era,50898
Cor triatriatum,50898
Hajo,99674
Fatty aldehyde,50898
Celery,50898
Yield stress,50898
Svoboda,50898
Raoultella,50898
visilizumab,50898
Arthropathy,50898
Fourier Domain,50898
SNAIL,50898
spanning forest,50898
Niobium,50898
R Coronae Borealis,50898
mug-shot,50898
Elevated heart rate,50898
creative time,50898
asthenozoospermia,50898
ASTER,50898
Zagaris,50898
Private equity,50898
L-Glutamate,50898
WZW models,50898
Marburg hemorrhagic fever,50898
Vasoconstrictor,50898
Acoustic Doppler Current Profiler,50898
Viable System Model,50898
Northern Wheatear,50898
Tosoh,50898
scapholunate ligament,50898
Endovenous laser treatment,50898
Mentalization-based treatment,50898
Azurite,50898
overdetermination,50898
viscous fingering,50898
Breast self-examination,50898
video feedback intervention,50898
Anthropological Theory,50898
protease-activated receptor-1,50898
lead white,50898
illuvial horizons,50898
Pregnancy-associated malaria,50898
Fenretinide,50898
Neural oscillations,50898
Nanotoxicology,50898
Accelerated idioventricular rhythm,50898
Segmental vitiligo,50898
confined water,50898
Indische Buurt,50898
fate mapping,50898
threat levels,50898
compulsive buying disorder,50898
In moderation,50898
non-contractible,50898
barstar,50898
braneworld,50898
loop gain,50898
prosthesis design,50898
Delta method,50898
UV filter,50898
The Interview,50898
6DOF,50898
kinetic reaction,50898
IRX5,50898
Spatial normalization,50898
Cnidaria,50898
B. weihenstephanensis,50898
CD48,50898
altitudinal zonation,50898
Nephrologist,50898
cor triatriatum,50898
electron transport system,50898
strawberry fields,50898
hepatic flexure,50898
prostatitis,50898
Fluvisols,50898
tax haven,50898
CATSPER4,50898
vulnerable category,50898
Silvanus,50898
ALDH2,50898
Euroskepticism,50898
Deception Bay,50898
posterior interosseous nerve,50898
domain expert,50898
Negombata,50898
gradient copolymers,50898
favus,50898
attribute-based access control,50898
CYO,50898
.223,50898
anisometropia,50898
meal replacement,50898
Lead white,50898
bottle cells,50898
ancestral graph,50898
Fragaria ananassa,50898
higher ground,50898
talocalcaneal joint,50898
ADVISE,50898
Marburg virus,50898
GCRT J1745-3009,50898
magnetic resonance force microscopy,50898
cylindrical coordinates,50898
ophiuroids,50898
BNC,50898
barnase,50898
IRX6,50898
API2,50898
Renal Medicine,50898
Conference report,50898
psychrotolerant,50898
piston pump,50898
selenide,50898
Gammagard,50898
dorsal radiocarpal ligament,50898
Sephardim,50898
GAPDHS,50898
CoRoTs,50898
SD 28,50898
XM,50898
sphenoid sinuses,50898
TOLLIP,50898
HVR1,50898
operator splitting,50898
Green-Ampt,50898
FCN2,50898
HXB,50898
motor end-plate,50898
H1N1/09,50898
"Moreton Bay, Queensland",50898
SplitsTree,50898
terminal button,50898
Hypovitaminosis D,50898
Chhatrapati Shivaji Maharaj Vastu Sangrahalaya,50898
embedding dimension,50898
calcaneal tendon,50898
Heat transfer,50898
hydroids,50898
MGFA,50898
Laplacian distribution,50898
Pontic Mountains,50898
MP30,50898
Oi,50898
3-methylheptane,50898
Richard Sennett,50898
STAG3,50898
Langmuir probe,50898
traumatic amnesia,50898
Family medicine,50898
Nottebohm,50898
a2m,50898
azurite,50898
Ophiothrix,50898
threonine aldolase,50898
monads,50898
E61,50898
young galaxy,50898
SD 34,50898
Alpine Convention,50898
Canarian,50898
Hypercoagulability,50898
Minimal Residual Method,50898
IRX3,50898
IPES,50898
EOMES,50898
Vaginal vault,50898
circular reasoning,50898
Populus alba,50898
simpli,50898
Mbekweni,50898
Ophiocoma,50898
heat conduction coefficient,50898
ss 1,50898
hot blood,50898
MeNZB,50898
source confusion,50898
shear waves,50898
SLC9A10,50898
l-carnitine,50898
Alentejo,50898
breaking strain,50898
EFLY,50898
tesserae,50898
monosulcate,50898
traf6,50898
Heart murmur,50898
Loa loa,50898
vertex corrections,50898
hospital waste,50898
Gaugino,50898
Quark matter,50898
STR analysis,50898
Facilitated diffusion,50898
Wick rotation,50898
Ward identity,50898
GGCX,50898
class IV-V,50898
protein-protein docking,50898
IL1R2,50898
lead-tin yellow,50898
stochastic grammar,50898
Lindenbaum-Tarski algebra,50898
tertiary carbon,50898
imaging processing,50898
fisheries law,50898
BATF,50898
Ajaria,50898
epididymitis,50898
monoacylglycerol lipase,50898
Polyester,50898
paranasal sinus,50898
grand unified theory,50898
Traf6,50898
WSBC,50898
PVX,50898
gammaretroviral,50898
MECO,50898
Nitrogen fixation,50898
Cre-mediated recombination,50898
rickettsial diseases,50898
Necropsy,50898
filamin A,50898
transimpedance,50898
acanthothoracid,50898
Thrinax,50898
gamma diversity,50898
HPh,50898
Braakman,50898
Chelyocarpus,50898
Metaplasia,50898
Internode,50898
SMBC,50898
SEAT,50898
acromegalic,50898
OOR,50898
eikonal approximation,50898
The warp,50898
strong equivalence principle,50898
Western India,50898
sheddase,50898
CALM1,50898
Mordon,50898
NGC 4151,50898
LRRFIP1,50898
PSR B1828-11,50898
IVEC,50898
RAD54B,50898
renal osteodystrophy,50898
Berkhout,50898
gravitational slingshot,50898
psychoneurosis,50898
power blackout,50898
Amide I,50898
Organoid,50898
Cryosophila,50898
Nestle,50898
celeriac,50898
Henan,50898
Tkachenko,50898
unaccompanied minors,50898
enteropathogen,50898
massicot,50898
STAP1,50898
biclustering,50898
TXL,50898
Capnodiales,50898
l-Carnitine,50898
The BAT,50898
star star,50898
Exiqon,50898
MS-275,50898
interpellates,50898
FLI1,50898
temoporfin,50898
BCL-X(L),50898
mid-day,50898
Banff,50898
solitary rectal ulcer syndrome,50898
tick-borne encephalitis,50898
Nanchang,50898
restoration ecology,50898
risk-based testing,50898
gyrovirus,50898
m3 receptors,50898
inside-outside algorithm,50898
Espaillat,50898
Surry,50898
apical constriction,50898
Asean Free Trade Area,50898
ABF,50898
saturation divers,50898
North-West Province,50898
Federal Aviation Administration,50898
Systemic risk,50898
Memory consolidation,50898
Focused Ion Beam,50898
Tibet Autonomous Region,50898
demand schedule,50898
unlearn,50898
Didier Fassin,50898
narrative theory,50898
semantic layer,50898
algorithmic probability,50898
Sneakers,50898
Overdetermination,50898
elbow extension test,50898
Tweet,50898
linguistic performance,50898
global radio,50898
2009 German Federal Election,99674
uridine diphosphate,50898
homeschooling,50898
two-body system,50898
low-mass x-ray binaries,50898
dopamine pathways,50898
somatic cell nuclear transfer,50898
light pollution,50898
Anaphora,50898
Fraser River,50898
Financial Times Global 500,50898
Maturana,50898
spectral coherence,50898
Tacit knowledge,50898
flow shop scheduling problem,50898
capital requirements directive,50898
F-score,50898
maxillary canine,50898
Heilongjiang,50898
Princeton Junction,50898
BTBA,50898
Cholestatic pruritus,50898
purchasing managers,50898
humoral theory,50898
homotopical algebra,50898
Next-Generation Sequencing,50898
compulsive hoarding,50898
Asian Financial Crisis,50898
Killing form,50898
Greater New Haven,50898
family literacy,50898
Apium graveolens,50898
product proliferation,50898
Sofala Province,50898
ficolin,50898
"RTS,S",50898
social risk management,50898
quasiprojective varieties,50898
steamship,50898
paralipsis,99623
erythrophobia,50898
cyberinfrastructure,50898
securitisation,50898
Fermi Gamma-Ray Burst Monitor,50898
Panic Disorder Severity Scale,50898
James Marshall,50898
type-2 diabetes mellitus,50898
cardioplegic,50898
universality principle,50898
Martians,50898
FERM domain,50898
Thirty-nine articles,50898
Problem gambling,50898
red lead,50898
lrrfip1,50898
room number,50898
holographic duality,50898
cyanophycin,50898
GNA12,50898
syncitial,50898
interior mountains,50898
original P,50898
Podospora,50898
metalized,50898
Oleaceae,50898
Itaya,50898
AKAP4,50898
SIGLEC1,50898
afroalpine,50898
Wnt3,50898
CIB1,50898
CATSPER1,50898
local origination,50898
rotary kiln,50898
water-type,50898
antisense therapy,50898
Lipiodol,50898
Nigg,50898
WD-40,50898
KNN,50898
TFE3,50898
eave,50898
arachnid,50898
Parkes Observatory,50898
Influenza Genome Sequencing Project,50898
ryanodine receptor 2,50898
CATSPER2,50898
CATSPER3,50898
Derby,50898
GRP94,50898
BCL10,50898
Netar Mallick,50898
Causal inference,50898
AFF1,50898
Plantae,50898
G protein-coupled receptor kinase 2,50898
Atibie,50898
"Oct 15, 2012",50898
Robinson-Foulds,50898
Cryosophileae,50898
75 minutes,50898
proteotoxicity,50898
Digital PCR,50898
IKZF3,50898
Glucosylceramidase,50898
East African mountains,50898
ASTRO-H,50898
Prenylcysteine oxidase,50898
Sphingosine-1-phosphate receptor,50898
Van den Broek,50898
SD 45,50898
genesis 48,50898
Aveiro,50898
WWTR1,50898
BLOSUM,50898
T. mentagrophytes,50898
Citrobacter koseri,50898
Slc4a4,50898
epicontinental sea,50898
compatible partners,50898
Drebrin,50898
myasis,50898
Visilizumab,50898
CYM,50898
ApoCIII,50898
centipede,50898
Hansenula polymorpha,50898
AREDS,50898
flight paths,50898
Myriapoda,50898
Il23r,50898
YAP1,50898
wakefield,50898
fibrinogen alpha chain,50898
humanism,50898
random family,50898
Computer-aided diagnosis,50898
verb classifier,50898
shared services,50898
Alpine countries,50898
Intelligent Design,50898
Oncorhynchus nerka,50898
stock market indices,50898
A/B test,50898
AlGaN,50898
Saint-Luc,50898
Molecular Cell,50898
Potato Virus X,50898
Jersey Shore,50898
Mean Opinion Score,50898
bright giant,50898
Ion chromatography,50898
Neuse River,50898
proton-antiproton collider,50898
college health,50898
Equator Principles,50898
Integrated Applications Promotion,50898
Simon & Schuster,50898
PSR B1620-26,50898
vacuum distillation,50898
Damage-associated molecular pattern,50898
simplexity,50898
network intelligence,50898
Paramyxoviridae,50898
rate function,50898
Max Havelaar,50898
Mufindi,50898
large magellanic cloud,50898
Greimas,50898
ZSK,50898
Biomet,50898
neutral variation,50898
Medical psychology,50898
CSIR,50898
adventure game,50898
trophic dynamics,50898
sulfamide,50898
Dynamic Time Warping (DTW),50898
David Gauthier,50898
ethyl cellulose,50898
Dependence Logic,50898
Kalimpong,50898
Federal Reserve System,50898
diffuse parenchymal lung disease,50898
The Lancet,50898
marasmic,50898
extremal black hole,50898
MAD2,50898
extensively drug resistant tuberculosis,50898
crotonase,50898
NFKB,50898
Rubinstein-Taybi Syndrome,50898
Orsoni,50898
retrograde signaling,50898
hyperchloremic acidosis,50898
Clancy,50898
Legnano,50898
sf3b1,50898
DCS2,50898
Atassi,50898
Gfi1,50898
Splice variant,50898
galaxy merger,50898
embryo cryopreservation,50898
Peripheral Nervous System,50898
bed management,50898
Union territory,50898
intrusive imagery,50898
Kalydeco,50898
htc,50898
Lockean proviso,50898
13 group,50898
postoperative cognitive dysfunction,50898
unknown path,50898
Saturation Diving,50898
scabies,50898
gut tube,50898
synagogue,50898
quantized vortices,50898
virtual community,50898
service discovery,50898
Anabaena variabilis,50898
The Game,50898
oxysterol-binding protein,50898
hepatotoxins,50898
Ziehl-Neelsen stain,50898
Isaac Lipschits,50898
total knee Arthroplasty,50898
composite constructed,50898
Ivorian civil war,50898
sublevel sets,50898
ventricular assist device,50898
Voluntary Partnership Agreements,50898
multi-set,50898
MVS,50898
labor history,50898
G-banded,50898
Sikkim,50898
Galaxy Evolution Explorer,50898
social animal,50898
Nero,50898
saturation temperature,50898
chlorodiphenylphosphine,50898
Fermi gamma-ray space telescope,50898
water footprint,50898
Anesthesiologist,50898
Ciconia,50898
matchmaking,50898
Galba,50898
computable function,50898
ACCU,50898
targeted attacks,50898
Bragg reflector,50898
polarity item,50898
observational techniques,50898
bio-char,50898
intertitle,50898
pass band,50898
contact geometry,50898
Anglocentrism,50898
Kinston,50898
OAZ1,50898
Venereology,50898
prosodic break,50898
Manuel Castells,50898
elastic distortion,50898
Wealth distribution,50898
Recombinase polymerase amplification,50898
capital controls.,50898
leuprolide acetate,50898
amino sugar,50898
atomic decay,50898
polling station,50898
vbl,50898
fashion photography,50898
free carrier absorption,50898
passive treatment,50898
A/B tests,50898
quantile regressions,50898
Kinsey scale,50898
protein kinase R,50898
U H,50898
opioid-induced constipation,50898
intensive interaction,50898
Rayleigh distribution,50898
T-unit,50898
Manchester Royal Infirmary,50898
Yoruba,50898
central fatigue,50898
vaccine-preventable disease,50898
solv,50898
Middle Eocene Climatic Optimum,50898
Qingyunpu District,50898
lycopersicon,50898
Maramagambo Forest,50898
Aarhus County,50898
graph Laplacian,50898
isobutylene,50898
"Lalo, Benin",50898
Patients Association,50898
Busy Beaver,50898
CAMK,50898
antizyme,50898
symbolic interactionism,50898
Eurocentrism,50898
paleotropical,50898
H5N1 vaccine,50898
New Towns,50898
miniatures,50898
speckle pattern,50898
Pullback,50898
Sickle Cell Disease,50898
DAISY,50898
ecocentric,50898
rapid switch,50898
storyboard,50898
ciconia,50898
surgical suture,50898
electron beam induced deposition,50898
Leslie Stephen,50898
gamma-tubulin,50898
Cinacalcet,50898
MT-TW,50898
Doppler spectroscopy,50898
Alqueva,50898
deviantArt,50898
trimethyllysine dioxygenase,50898
Gemini South,50898
Anita Loos,50898
Cartesian space,50898
IMPELLA,50898
EU Timber Regulation,50898
Latvian,50898
tribology,50898
Robert Dudley,50898
tris(2-carboxyethyl)phosphine,50898
redistributive politics,50898
Hugo Rietveld,50898
electrical resistivity tomography,50898
Hydrochloride,50898
Pattinson,50898
beeswax,50898
couplet,50898
difference principle,50898
Covariate,50898
nationality code,50898
microattribution,50898
evangelist,50898
eccentricity vector,50898
2004 European Election,50898
obesity-associated morbidity,50898
Lagos State,50898
Indegree,50898
specific social phobia,50898
uncertainty quantification,50898
Digital literacy,50898
social realism,50898
hypertensive kidney disease,50898
Z-alkene,50898
Eyebrow,50898
central telephone,50898
inference procedure,50898
LiveJournal,50898
Charisma,50898
Bulukumba,50898
EU candidacy,50898
Reiki,50898
cantilever magnetometry,50898
Animal model,50898
Dana-Farber,50898
pre-measure,50898
United States Dollars,50898
GDI,50898
breviary,50898
Very Long Baseline Interferometry (VLBI),50898
G-20 summit,50898
noncompaction cardiomyopathy,50898
multiclass classification,50898
Mpigi,50898
Pulmonary function test,50898
Baguio,50898
oxybenzone,50898
fish processing,50898
diamondoid,50898
modal depth,50898
Mitrou,50898
Life table,50898
anthropocentrically,50898
inferrable,50898
porfolio,50898
George Washington University,50898
NCEP/NCAR Reanalysis,50898
Shepp-Logan phantom,50898
endoskeleton,50898
Tillandsioideae,50898
oil depletion,50898
infraorbital canal,50898
intellectual property organization,50898
experimental medicine,50898
Soroti,50898
British Medical Journal,50898
transplant glomerulopathy,50898
immunostimulant,50898
Coddington,50898
continuing professional development,50898
Abnormal heart rhythm,50898
separating set,50898
casea,50898
hydrazinium,50898
Bacolod,50898
K. oxytoca,50898
cranial neuropathy,50898
metabolic intermediate,50898
streptococcus suis,50898
avobenzone,50898
IBU,50898
Lefkandi,50898
parachute,50898
particle-in-cell,50898
Respiratory tract infections,50898
Phylogenetic diversity,50898
down-sampled,50898
direct simulation Monte Carlo,50898
Rey Chow,50898
alcoholysis,50898
Reverse transcriptase PCR,50898
desalinization,50898
hyperrectangle,50898
Ornithodoros moubata,50898
RNF12,50898
Jarvik 2000,50898
SMB,50898
CAD software,50898
modern method,50898
Keck Interferometer,50898
octinoxate,50898
Mesenteric lymph nodes,50898